*Heading
 S7 / BFGS
** Job name: task7_s7_bfgs_refined Model name: S7_BFGS
** Generated by: Abaqus/CAE Learning Edition 2025
*Preprint, echo=NO, model=NO, history=NO, contact=NO
**
** PARTS
**
*Part, name=TowerShell
*Node
      1,   33.4212456,   2.67633057,           0.
      2,   39.2999992,           0.,           0.
      3,   28.5986786,   5.83983088,           0.
      4,   24.8630428,   9.36328983,           0.
      5,    22.193367,   13.1382589,           0.
      6,   20.5554829,   17.0714054,           0.
      7,   19.9191303,   21.0814457,           0.
      8,   20.2687473,   25.0995445,           0.
      9,    21.612421,   29.0609169,           0.
     10,   23.9774151,   32.8893929,           0.
     11,   27.3999996,   36.4969025,           0.
     12,   33.0097733,   2.67633057,   5.22823477
     13,   31.7854939,   2.67633057,    10.327733
     14,   29.7785473,   2.67633057,   15.1729279
     15,   27.0383549,   2.67633057,    19.644516
     16,   23.6323891,   2.67633057,   23.6323891
     17,    19.644516,   2.67633057,   27.0383549
     18,   15.1729279,   2.67633057,   29.7785473
     19,    10.327733,   2.67633057,   31.7854939
     20,   5.22823477,   2.67633057,   33.0097733
     21,           0.,   2.67633057,   33.4212456
     22,  -5.22823477,   2.67633057,   33.0097733
     23,   -10.327733,   2.67633057,   31.7854939
     24,  -15.1729279,   2.67633057,   29.7785473
     25,   -19.644516,   2.67633057,   27.0383549
     26,  -23.6323891,   2.67633057,   23.6323891
     27,  -27.0383549,   2.67633057,    19.644516
     28,  -29.7785473,   2.67633057,   15.1729279
     29,  -31.7854939,   2.67633057,    10.327733
     30,  -33.0097733,   2.67633057,   5.22823477
     31,  -33.4212456,   2.67633057,           0.
     32,  -33.0097733,   2.67633057,  -5.22823477
     33,  -31.7854939,   2.67633057,   -10.327733
     34,  -29.7785473,   2.67633057,  -15.1729279
     35,  -27.0383549,   2.67633057,   -19.644516
     36,  -23.6323891,   2.67633057,  -23.6323891
     37,   -19.644516,   2.67633057,  -27.0383549
     38,  -15.1729279,   2.67633057,  -29.7785473
     39,   -10.327733,   2.67633057,  -31.7854939
     40,  -5.22823477,   2.67633057,  -33.0097733
     41,           0.,   2.67633057,  -33.4212456
     42,   5.22823477,   2.67633057,  -33.0097733
     43,    10.327733,   2.67633057,  -31.7854939
     44,   15.1729279,   2.67633057,  -29.7785473
     45,    19.644516,   2.67633057,  -27.0383549
     46,   23.6323891,   2.67633057,  -23.6323891
     47,   27.0383549,   2.67633057,   -19.644516
     48,   29.7785473,   2.67633057,  -15.1729279
     49,   31.7854939,   2.67633057,   -10.327733
     50,   33.0097733,   2.67633057,  -5.22823477
     51,   36.3606224,   1.33816528,           0.
     52,   38.8161507,           0.,   6.14787436
     53,   37.3765221,           0.,   12.1443682
     54,   35.0165558,           0.,   17.8418274
     55,   31.7943687,           0.,   23.0999603
     56,   27.7892971,           0.,   27.7892971
     57,   23.0999603,           0.,   31.7943687
     58,   17.8418274,           0.,   35.0165558
     59,   12.1443682,           0.,   37.3765221
     60,   6.14787436,           0.,   38.8161507
     61,           0.,           0.,   39.2999992
     62,  -6.14787436,           0.,   38.8161507
     63,  -12.1443682,           0.,   37.3765221
     64,  -17.8418274,           0.,   35.0165558
     65,  -23.0999603,           0.,   31.7943687
     66,  -27.7892971,           0.,   27.7892971
     67,  -31.7943687,           0.,   23.0999603
     68,  -35.0165558,           0.,   17.8418274
     69,  -37.3765221,           0.,   12.1443682
     70,  -38.8161507,           0.,   6.14787436
     71,  -39.2999992,           0.,           0.
     72,  -38.8161507,           0.,  -6.14787436
     73,  -37.3765221,           0.,  -12.1443682
     74,  -35.0165558,           0.,  -17.8418274
     75,  -31.7943687,           0.,  -23.0999603
     76,  -27.7892971,           0.,  -27.7892971
     77,  -23.0999603,           0.,  -31.7943687
     78,  -17.8418274,           0.,  -35.0165558
     79,  -12.1443682,           0.,  -37.3765221
     80,  -6.14787436,           0.,  -38.8161507
     81,           0.,           0.,  -39.2999992
     82,   6.14787436,           0.,  -38.8161507
     83,   12.1443682,           0.,  -37.3765221
     84,   17.8418274,           0.,  -35.0165558
     85,   23.0999603,           0.,  -31.7943687
     86,   27.7892971,           0.,  -27.7892971
     87,   31.7943687,           0.,  -23.0999603
     88,   35.0165558,           0.,  -17.8418274
     89,   37.3765221,           0.,  -12.1443682
     90,   38.8161507,           0.,  -6.14787436
     91,    28.246582,   5.83983088,   4.47381926
     92,   27.1989594,   5.83983088,   8.83747768
     93,   25.4816093,   5.83983088,   12.9835281
     94,   23.1368179,   5.83983088,   16.8098812
     95,   20.2223206,   5.83983088,   20.2223206
     96,   16.8098812,   5.83983088,   23.1368179
     97,   12.9835281,   5.83983088,   25.4816093
     98,   8.83747768,   5.83983088,   27.1989594
     99,   4.47381926,   5.83983088,    28.246582
    100,           0.,   5.83983088,   28.5986786
    101,  -4.47381926,   5.83983088,    28.246582
    102,  -8.83747768,   5.83983088,   27.1989594
    103,  -12.9835281,   5.83983088,   25.4816093
    104,  -16.8098812,   5.83983088,   23.1368179
    105,  -20.2223206,   5.83983088,   20.2223206
    106,  -23.1368179,   5.83983088,   16.8098812
    107,  -25.4816093,   5.83983088,   12.9835281
    108,  -27.1989594,   5.83983088,   8.83747768
    109,   -28.246582,   5.83983088,   4.47381926
    110,  -28.5986786,   5.83983088,           0.
    111,   -28.246582,   5.83983088,  -4.47381926
    112,  -27.1989594,   5.83983088,  -8.83747768
    113,  -25.4816093,   5.83983088,  -12.9835281
    114,  -23.1368179,   5.83983088,  -16.8098812
    115,  -20.2223206,   5.83983088,  -20.2223206
    116,  -16.8098812,   5.83983088,  -23.1368179
    117,  -12.9835281,   5.83983088,  -25.4816093
    118,  -8.83747768,   5.83983088,  -27.1989594
    119,  -4.47381926,   5.83983088,   -28.246582
    120,           0.,   5.83983088,  -28.5986786
    121,   4.47381926,   5.83983088,   -28.246582
    122,   8.83747768,   5.83983088,  -27.1989594
    123,   12.9835281,   5.83983088,  -25.4816093
    124,   16.8098812,   5.83983088,  -23.1368179
    125,   20.2223206,   5.83983088,  -20.2223206
    126,   23.1368179,   5.83983088,  -16.8098812
    127,   25.4816093,   5.83983088,  -12.9835281
    128,   27.1989594,   5.83983088,  -8.83747768
    129,    28.246582,   5.83983088,  -4.47381926
    130,   31.0099621,   4.25808048,           0.
    131,   24.5569363,   9.36328983,   3.88943672
    132,   23.6461582,   9.36328983,   7.68310261
    133,   22.1531334,   9.36328983,   11.2875853
    134,    20.114624,   9.36328983,   14.6141291
    135,   17.5808258,   9.36328983,   17.5808258
    136,   14.6141291,   9.36328983,    20.114624
    137,   11.2875853,   9.36328983,   22.1531334
    138,   7.68310261,   9.36328983,   23.6461582
    139,   3.88943672,   9.36328983,   24.5569363
    140,           0.,   9.36328983,   24.8630428
    141,  -3.88943672,   9.36328983,   24.5569363
    142,  -7.68310261,   9.36328983,   23.6461582
    143,  -11.2875853,   9.36328983,   22.1531334
    144,  -14.6141291,   9.36328983,    20.114624
    145,  -17.5808258,   9.36328983,   17.5808258
    146,   -20.114624,   9.36328983,   14.6141291
    147,  -22.1531334,   9.36328983,   11.2875853
    148,  -23.6461582,   9.36328983,   7.68310261
    149,  -24.5569363,   9.36328983,   3.88943672
    150,  -24.8630428,   9.36328983,           0.
    151,  -24.5569363,   9.36328983,  -3.88943672
    152,  -23.6461582,   9.36328983,  -7.68310261
    153,  -22.1531334,   9.36328983,  -11.2875853
    154,   -20.114624,   9.36328983,  -14.6141291
    155,  -17.5808258,   9.36328983,  -17.5808258
    156,  -14.6141291,   9.36328983,   -20.114624
    157,  -11.2875853,   9.36328983,  -22.1531334
    158,  -7.68310261,   9.36328983,  -23.6461582
    159,  -3.88943672,   9.36328983,  -24.5569363
    160,           0.,   9.36328983,  -24.8630428
    161,   3.88943672,   9.36328983,  -24.5569363
    162,   7.68310261,   9.36328983,  -23.6461582
    163,   11.2875853,   9.36328983,  -22.1531334
    164,   14.6141291,   9.36328983,   -20.114624
    165,   17.5808258,   9.36328983,  -17.5808258
    166,    20.114624,   9.36328983,  -14.6141291
    167,   22.1531334,   9.36328983,  -11.2875853
    168,   23.6461582,   9.36328983,  -7.68310261
    169,   24.5569363,   9.36328983,  -3.88943672
    170,   26.7308598,   7.60156012,           0.
    171,   21.9201298,   13.1382589,   3.47180748
    172,   21.1071472,   13.1382589,   6.85812759
    173,    19.774435,   13.1382589,   10.0755777
    174,   17.9548111,   13.1382589,   13.0449343
    175,   15.6930799,   13.1382589,   15.6930799
    176,   13.0449343,   13.1382589,   17.9548111
    177,   10.0755777,   13.1382589,    19.774435
    178,   6.85812759,   13.1382589,   21.1071472
    179,   3.47180748,   13.1382589,   21.9201298
    180,           0.,   13.1382589,    22.193367
    181,  -3.47180748,   13.1382589,   21.9201298
    182,  -6.85812759,   13.1382589,   21.1071472
    183,  -10.0755777,   13.1382589,    19.774435
    184,  -13.0449343,   13.1382589,   17.9548111
    185,  -15.6930799,   13.1382589,   15.6930799
    186,  -17.9548111,   13.1382589,   13.0449343
    187,   -19.774435,   13.1382589,   10.0755777
    188,  -21.1071472,   13.1382589,   6.85812759
    189,  -21.9201298,   13.1382589,   3.47180748
    190,   -22.193367,   13.1382589,           0.
    191,  -21.9201298,   13.1382589,  -3.47180748
    192,  -21.1071472,   13.1382589,  -6.85812759
    193,   -19.774435,   13.1382589,  -10.0755777
    194,  -17.9548111,   13.1382589,  -13.0449343
    195,  -15.6930799,   13.1382589,  -15.6930799
    196,  -13.0449343,   13.1382589,  -17.9548111
    197,  -10.0755777,   13.1382589,   -19.774435
    198,  -6.85812759,   13.1382589,  -21.1071472
    199,  -3.47180748,   13.1382589,  -21.9201298
    200,           0.,   13.1382589,   -22.193367
    201,   3.47180748,   13.1382589,  -21.9201298
    202,   6.85812759,   13.1382589,  -21.1071472
    203,   10.0755777,   13.1382589,   -19.774435
    204,   13.0449343,   13.1382589,  -17.9548111
    205,   15.6930799,   13.1382589,  -15.6930799
    206,   17.9548111,   13.1382589,  -13.0449343
    207,    19.774435,   13.1382589,  -10.0755777
    208,   21.1071472,   13.1382589,  -6.85812759
    209,   21.9201298,   13.1382589,  -3.47180748
    210,    23.528204,   11.2507744,           0.
    211,   20.3024101,   17.0714054,   3.21558595
    212,    19.549427,   17.0714054,   6.35199356
    213,   18.3150692,   17.0714054,   9.33199406
    214,   16.6297359,   17.0714054,   12.0822096
    215,   14.5349216,   17.0714054,   14.5349216
    216,   12.0822096,   17.0714054,   16.6297359
    217,   9.33199406,   17.0714054,   18.3150692
    218,   6.35199356,   17.0714054,    19.549427
    219,   3.21558595,   17.0714054,   20.3024101
    220,           0.,   17.0714054,   20.5554829
    221,  -3.21558595,   17.0714054,   20.3024101
    222,  -6.35199356,   17.0714054,    19.549427
    223,  -9.33199406,   17.0714054,   18.3150692
    224,  -12.0822096,   17.0714054,   16.6297359
    225,  -14.5349216,   17.0714054,   14.5349216
    226,  -16.6297359,   17.0714054,   12.0822096
    227,  -18.3150692,   17.0714054,   9.33199406
    228,   -19.549427,   17.0714054,   6.35199356
    229,  -20.3024101,   17.0714054,   3.21558595
    230,  -20.5554829,   17.0714054,           0.
    231,  -20.3024101,   17.0714054,  -3.21558595
    232,   -19.549427,   17.0714054,  -6.35199356
    233,  -18.3150692,   17.0714054,  -9.33199406
    234,  -16.6297359,   17.0714054,  -12.0822096
    235,  -14.5349216,   17.0714054,  -14.5349216
    236,  -12.0822096,   17.0714054,  -16.6297359
    237,  -9.33199406,   17.0714054,  -18.3150692
    238,  -6.35199356,   17.0714054,   -19.549427
    239,  -3.21558595,   17.0714054,  -20.3024101
    240,           0.,   17.0714054,  -20.5554829
    241,   3.21558595,   17.0714054,  -20.3024101
    242,   6.35199356,   17.0714054,   -19.549427
    243,   9.33199406,   17.0714054,  -18.3150692
    244,   12.0822096,   17.0714054,  -16.6297359
    245,   14.5349216,   17.0714054,  -14.5349216
    246,   16.6297359,   17.0714054,  -12.0822096
    247,   18.3150692,   17.0714054,  -9.33199406
    248,    19.549427,   17.0714054,  -6.35199356
    249,   20.3024101,   17.0714054,  -3.21558595
    250,   21.3744259,   15.1048317,           0.
    251,    19.673893,   21.0814457,   3.11603856
    252,   18.9442196,   21.0814457,   6.15535021
    253,   17.7480755,   21.0814457,   9.04309654
    254,   16.1149158,   21.0814457,   11.7081718
    255,   14.0849524,   21.0814457,   14.0849524
    256,   11.7081718,   21.0814457,   16.1149158
    257,   9.04309654,   21.0814457,   17.7480755
    258,   6.15535021,   21.0814457,   18.9442196
    259,   3.11603856,   21.0814457,    19.673893
    260,           0.,   21.0814457,   19.9191303
    261,  -3.11603856,   21.0814457,    19.673893
    262,  -6.15535021,   21.0814457,   18.9442196
    263,  -9.04309654,   21.0814457,   17.7480755
    264,  -11.7081718,   21.0814457,   16.1149158
    265,  -14.0849524,   21.0814457,   14.0849524
    266,  -16.1149158,   21.0814457,   11.7081718
    267,  -17.7480755,   21.0814457,   9.04309654
    268,  -18.9442196,   21.0814457,   6.15535021
    269,   -19.673893,   21.0814457,   3.11603856
    270,  -19.9191303,   21.0814457,           0.
    271,   -19.673893,   21.0814457,  -3.11603856
    272,  -18.9442196,   21.0814457,  -6.15535021
    273,  -17.7480755,   21.0814457,  -9.04309654
    274,  -16.1149158,   21.0814457,  -11.7081718
    275,  -14.0849524,   21.0814457,  -14.0849524
    276,  -11.7081718,   21.0814457,  -16.1149158
    277,  -9.04309654,   21.0814457,  -17.7480755
    278,  -6.15535021,   21.0814457,  -18.9442196
    279,  -3.11603856,   21.0814457,   -19.673893
    280,           0.,   21.0814457,  -19.9191303
    281,   3.11603856,   21.0814457,   -19.673893
    282,   6.15535021,   21.0814457,  -18.9442196
    283,   9.04309654,   21.0814457,  -17.7480755
    284,   11.7081718,   21.0814457,  -16.1149158
    285,   14.0849524,   21.0814457,  -14.0849524
    286,   16.1149158,   21.0814457,  -11.7081718
    287,   17.7480755,   21.0814457,  -9.04309654
    288,   18.9442196,   21.0814457,  -6.15535021
    289,    19.673893,   21.0814457,  -3.11603856
    290,   20.2373066,   19.0764256,           0.
    291,   20.0192051,   25.0995445,   3.17073059
    292,   19.2767239,   25.0995445,    6.2633872
    293,   18.0595856,   25.0995445,   9.20181847
    294,   16.3977604,   25.0995445,   11.9136705
    295,   14.3321686,   25.0995445,   14.3321686
    296,   11.9136705,   25.0995445,   16.3977604
    297,   9.20181847,   25.0995445,   18.0595856
    298,    6.2633872,   25.0995445,   19.2767239
    299,   3.17073059,   25.0995445,   20.0192051
    300,           0.,   25.0995445,   20.2687473
    301,  -3.17073059,   25.0995445,   20.0192051
    302,   -6.2633872,   25.0995445,   19.2767239
    303,  -9.20181847,   25.0995445,   18.0595856
    304,  -11.9136705,   25.0995445,   16.3977604
    305,  -14.3321686,   25.0995445,   14.3321686
    306,  -16.3977604,   25.0995445,   11.9136705
    307,  -18.0595856,   25.0995445,   9.20181847
    308,  -19.2767239,   25.0995445,    6.2633872
    309,  -20.0192051,   25.0995445,   3.17073059
    310,  -20.2687473,   25.0995445,           0.
    311,  -20.0192051,   25.0995445,  -3.17073059
    312,  -19.2767239,   25.0995445,   -6.2633872
    313,  -18.0595856,   25.0995445,  -9.20181847
    314,  -16.3977604,   25.0995445,  -11.9136705
    315,  -14.3321686,   25.0995445,  -14.3321686
    316,  -11.9136705,   25.0995445,  -16.3977604
    317,  -9.20181847,   25.0995445,  -18.0595856
    318,   -6.2633872,   25.0995445,  -19.2767239
    319,  -3.17073059,   25.0995445,  -20.0192051
    320,           0.,   25.0995445,  -20.2687473
    321,   3.17073059,   25.0995445,  -20.0192051
    322,    6.2633872,   25.0995445,  -19.2767239
    323,   9.20181847,   25.0995445,  -18.0595856
    324,   11.9136705,   25.0995445,  -16.3977604
    325,   14.3321686,   25.0995445,  -14.3321686
    326,   16.3977604,   25.0995445,  -11.9136705
    327,   18.0595856,   25.0995445,  -9.20181847
    328,   19.2767239,   25.0995445,   -6.2633872
    329,   20.0192051,   25.0995445,  -3.17073059
    330,   20.0939388,   23.0904942,           0.
    331,   21.3463364,   29.0609169,   3.38092756
    332,   20.5546341,   29.0609169,   6.67860556
    333,   19.2568092,   29.0609169,   9.81183434
    334,   17.4848156,   29.0609169,   12.7034626
    335,   15.2822895,   29.0609169,   15.2822895
    336,   12.7034626,   29.0609169,   17.4848156
    337,   9.81183434,   29.0609169,   19.2568092
    338,   6.67860556,   29.0609169,   20.5546341
    339,   3.38092756,   29.0609169,   21.3463364
    340,           0.,   29.0609169,    21.612421
    341,  -3.38092756,   29.0609169,   21.3463364
    342,  -6.67860556,   29.0609169,   20.5546341
    343,  -9.81183434,   29.0609169,   19.2568092
    344,  -12.7034626,   29.0609169,   17.4848156
    345,  -15.2822895,   29.0609169,   15.2822895
    346,  -17.4848156,   29.0609169,   12.7034626
    347,  -19.2568092,   29.0609169,   9.81183434
    348,  -20.5546341,   29.0609169,   6.67860556
    349,  -21.3463364,   29.0609169,   3.38092756
    350,   -21.612421,   29.0609169,           0.
    351,  -21.3463364,   29.0609169,  -3.38092756
    352,  -20.5546341,   29.0609169,  -6.67860556
    353,  -19.2568092,   29.0609169,  -9.81183434
    354,  -17.4848156,   29.0609169,  -12.7034626
    355,  -15.2822895,   29.0609169,  -15.2822895
    356,  -12.7034626,   29.0609169,  -17.4848156
    357,  -9.81183434,   29.0609169,  -19.2568092
    358,  -6.67860556,   29.0609169,  -20.5546341
    359,  -3.38092756,   29.0609169,  -21.3463364
    360,           0.,   29.0609169,   -21.612421
    361,   3.38092756,   29.0609169,  -21.3463364
    362,   6.67860556,   29.0609169,  -20.5546341
    363,   9.81183434,   29.0609169,  -19.2568092
    364,   12.7034626,   29.0609169,  -17.4848156
    365,   15.2822895,   29.0609169,  -15.2822895
    366,   17.4848156,   29.0609169,  -12.7034626
    367,   19.2568092,   29.0609169,  -9.81183434
    368,   20.5546341,   29.0609169,  -6.67860556
    369,   21.3463364,   29.0609169,  -3.38092756
    370,   20.9405842,   27.0802307,           0.
    371,   23.6822128,   32.8893929,   3.75089407
    372,   22.8038769,   32.8893929,    7.4094286
    373,   21.3640327,   32.8893929,    10.885519
    374,   19.3981361,   32.8893929,   14.0935707
    375,   16.9545937,   32.8893929,   16.9545937
    376,   14.0935707,   32.8893929,   19.3981361
    377,    10.885519,   32.8893929,   21.3640327
    378,    7.4094286,   32.8893929,   22.8038769
    379,   3.75089407,   32.8893929,   23.6822128
    380,           0.,   32.8893929,   23.9774151
    381,  -3.75089407,   32.8893929,   23.6822128
    382,   -7.4094286,   32.8893929,   22.8038769
    383,   -10.885519,   32.8893929,   21.3640327
    384,  -14.0935707,   32.8893929,   19.3981361
    385,  -16.9545937,   32.8893929,   16.9545937
    386,  -19.3981361,   32.8893929,   14.0935707
    387,  -21.3640327,   32.8893929,    10.885519
    388,  -22.8038769,   32.8893929,    7.4094286
    389,  -23.6822128,   32.8893929,   3.75089407
    390,  -23.9774151,   32.8893929,           0.
    391,  -23.6822128,   32.8893929,  -3.75089407
    392,  -22.8038769,   32.8893929,   -7.4094286
    393,  -21.3640327,   32.8893929,   -10.885519
    394,  -19.3981361,   32.8893929,  -14.0935707
    395,  -16.9545937,   32.8893929,  -16.9545937
    396,  -14.0935707,   32.8893929,  -19.3981361
    397,   -10.885519,   32.8893929,  -21.3640327
    398,   -7.4094286,   32.8893929,  -22.8038769
    399,  -3.75089407,   32.8893929,  -23.6822128
    400,           0.,   32.8893929,  -23.9774151
    401,   3.75089407,   32.8893929,  -23.6822128
    402,    7.4094286,   32.8893929,  -22.8038769
    403,    10.885519,   32.8893929,  -21.3640327
    404,   14.0935707,   32.8893929,  -19.3981361
    405,   16.9545937,   32.8893929,  -16.9545937
    406,   19.3981361,   32.8893929,  -14.0935707
    407,   21.3640327,   32.8893929,   -10.885519
    408,   22.8038769,   32.8893929,   -7.4094286
    409,   23.6822128,   32.8893929,  -3.75089407
    410,   22.7949181,   30.9751549,           0.
    411,   27.0626602,   36.4969025,   4.28630447
    412,   26.0589485,   36.4969025,   8.46706581
    413,    24.413578,   36.4969025,   12.4393396
    414,   22.1670666,   36.4969025,   16.1053162
    415,   19.3747253,   36.4969025,   19.3747253
    416,   16.1053162,   36.4969025,   22.1670666
    417,   12.4393396,   36.4969025,    24.413578
    418,   8.46706581,   36.4969025,   26.0589485
    419,   4.28630447,   36.4969025,   27.0626602
    420,           0.,   36.4969025,   27.3999996
    421,  -4.28630447,   36.4969025,   27.0626602
    422,  -8.46706581,   36.4969025,   26.0589485
    423,  -12.4393396,   36.4969025,    24.413578
    424,  -16.1053162,   36.4969025,   22.1670666
    425,  -19.3747253,   36.4969025,   19.3747253
    426,  -22.1670666,   36.4969025,   16.1053162
    427,   -24.413578,   36.4969025,   12.4393396
    428,  -26.0589485,   36.4969025,   8.46706581
    429,  -27.0626602,   36.4969025,   4.28630447
    430,  -27.3999996,   36.4969025,           0.
    431,  -27.0626602,   36.4969025,  -4.28630447
    432,  -26.0589485,   36.4969025,  -8.46706581
    433,   -24.413578,   36.4969025,  -12.4393396
    434,  -22.1670666,   36.4969025,  -16.1053162
    435,  -19.3747253,   36.4969025,  -19.3747253
    436,  -16.1053162,   36.4969025,  -22.1670666
    437,  -12.4393396,   36.4969025,   -24.413578
    438,  -8.46706581,   36.4969025,  -26.0589485
    439,  -4.28630447,   36.4969025,  -27.0626602
    440,           0.,   36.4969025,  -27.3999996
    441,   4.28630447,   36.4969025,  -27.0626602
    442,   8.46706581,   36.4969025,  -26.0589485
    443,   12.4393396,   36.4969025,   -24.413578
    444,   16.1053162,   36.4969025,  -22.1670666
    445,   19.3747253,   36.4969025,  -19.3747253
    446,   22.1670666,   36.4969025,  -16.1053162
    447,    24.413578,   36.4969025,  -12.4393396
    448,   26.0589485,   36.4969025,  -8.46706581
    449,   27.0626602,   36.4969025,  -4.28630447
    450,   25.6887074,   34.6931496,           0.
    451,   35.9129639,   1.33816528,  -5.68805456
    452,   34.5810089,   1.33816528,  -11.2360506
    453,   32.3975525,   1.33816528,  -16.5073776
    454,   29.4163609,   1.33816528,  -21.3722382
    455,   25.7108421,   1.33816528,  -25.7108421
    456,   21.3722382,   1.33816528,  -29.4163609
    457,   16.5073776,   1.33816528,  -32.3975525
    458,   11.2360506,   1.33816528,  -34.5810089
    459,   5.68805456,   1.33816528,  -35.9129639
    460,           0.,   1.33816528,  -36.3606224
    461,  -5.68805456,   1.33816528,  -35.9129639
    462,  -11.2360506,   1.33816528,  -34.5810089
    463,  -16.5073776,   1.33816528,  -32.3975525
    464,  -21.3722382,   1.33816528,  -29.4163609
    465,  -25.7108421,   1.33816528,  -25.7108421
    466,  -29.4163609,   1.33816528,  -21.3722382
    467,  -32.3975525,   1.33816528,  -16.5073776
    468,  -34.5810089,   1.33816528,  -11.2360506
    469,  -35.9129639,   1.33816528,  -5.68805456
    470,  -36.3606224,   1.33816528,           0.
    471,  -35.9129639,   1.33816528,   5.68805456
    472,  -34.5810089,   1.33816528,   11.2360506
    473,  -32.3975525,   1.33816528,   16.5073776
    474,  -29.4163609,   1.33816528,   21.3722382
    475,  -25.7108421,   1.33816528,   25.7108421
    476,  -21.3722382,   1.33816528,   29.4163609
    477,  -16.5073776,   1.33816528,   32.3975525
    478,  -11.2360506,   1.33816528,   34.5810089
    479,  -5.68805456,   1.33816528,   35.9129639
    480,           0.,   1.33816528,   36.3606224
    481,   5.68805456,   1.33816528,   35.9129639
    482,   11.2360506,   1.33816528,   34.5810089
    483,   16.5073776,   1.33816528,   32.3975525
    484,   21.3722382,   1.33816528,   29.4163609
    485,   25.7108421,   1.33816528,   25.7108421
    486,   29.4163609,   1.33816528,   21.3722382
    487,   32.3975525,   1.33816528,   16.5073776
    488,   34.5810089,   1.33816528,   11.2360506
    489,   35.9129639,   1.33816528,   5.68805456
    490,   30.6281776,   4.25808048,  -4.85102701
    491,   29.4922276,   4.25808048,  -9.58260536
    492,   27.6300793,   4.25808048,   -14.078228
    493,   25.0875854,   4.25808048,  -18.2271976
    494,   21.9273548,   4.25808048,  -21.9273548
    495,   18.2271976,   4.25808048,  -25.0875854
    496,    14.078228,   4.25808048,  -27.6300793
    497,   9.58260536,   4.25808048,  -29.4922276
    498,   4.85102701,   4.25808048,  -30.6281776
    499,           0.,   4.25808048,  -31.0099621
    500,  -4.85102701,   4.25808048,  -30.6281776
    501,  -9.58260536,   4.25808048,  -29.4922276
    502,   -14.078228,   4.25808048,  -27.6300793
    503,  -18.2271976,   4.25808048,  -25.0875854
    504,  -21.9273548,   4.25808048,  -21.9273548
    505,  -25.0875854,   4.25808048,  -18.2271976
    506,  -27.6300793,   4.25808048,   -14.078228
    507,  -29.4922276,   4.25808048,  -9.58260536
    508,  -30.6281776,   4.25808048,  -4.85102701
    509,  -31.0099621,   4.25808048,           0.
    510,  -30.6281776,   4.25808048,   4.85102701
    511,  -29.4922276,   4.25808048,   9.58260536
    512,  -27.6300793,   4.25808048,    14.078228
    513,  -25.0875854,   4.25808048,   18.2271976
    514,  -21.9273548,   4.25808048,   21.9273548
    515,  -18.2271976,   4.25808048,   25.0875854
    516,   -14.078228,   4.25808048,   27.6300793
    517,  -9.58260536,   4.25808048,   29.4922276
    518,  -4.85102701,   4.25808048,   30.6281776
    519,           0.,   4.25808048,   31.0099621
    520,   4.85102701,   4.25808048,   30.6281776
    521,   9.58260536,   4.25808048,   29.4922276
    522,    14.078228,   4.25808048,   27.6300793
    523,   18.2271976,   4.25808048,   25.0875854
    524,   21.9273548,   4.25808048,   21.9273548
    525,   25.0875854,   4.25808048,   18.2271976
    526,   27.6300793,   4.25808048,    14.078228
    527,   29.4922276,   4.25808048,   9.58260536
    528,   30.6281776,   4.25808048,   4.85102701
    529,   26.4017601,   7.60156012,  -4.18162775
    530,   25.4225597,   7.60156012,  -8.26029015
    531,   23.8173714,   7.60156012,  -12.1355562
    532,    21.625721,   7.60156012,  -15.7120056
    533,   18.9015732,   7.60156012,  -18.9015732
    534,   15.7120056,   7.60156012,   -21.625721
    535,   12.1355562,   7.60156012,  -23.8173714
    536,   8.26029015,   7.60156012,  -25.4225597
    537,   4.18162775,   7.60156012,  -26.4017601
    538,           0.,   7.60156012,  -26.7308598
    539,  -4.18162775,   7.60156012,  -26.4017601
    540,  -8.26029015,   7.60156012,  -25.4225597
    541,  -12.1355562,   7.60156012,  -23.8173714
    542,  -15.7120056,   7.60156012,   -21.625721
    543,  -18.9015732,   7.60156012,  -18.9015732
    544,   -21.625721,   7.60156012,  -15.7120056
    545,  -23.8173714,   7.60156012,  -12.1355562
    546,  -25.4225597,   7.60156012,  -8.26029015
    547,  -26.4017601,   7.60156012,  -4.18162775
    548,  -26.7308598,   7.60156012,           0.
    549,  -26.4017601,   7.60156012,   4.18162775
    550,  -25.4225597,   7.60156012,   8.26029015
    551,  -23.8173714,   7.60156012,   12.1355562
    552,   -21.625721,   7.60156012,   15.7120056
    553,  -18.9015732,   7.60156012,   18.9015732
    554,  -15.7120056,   7.60156012,    21.625721
    555,  -12.1355562,   7.60156012,   23.8173714
    556,  -8.26029015,   7.60156012,   25.4225597
    557,  -4.18162775,   7.60156012,   26.4017601
    558,           0.,   7.60156012,   26.7308598
    559,   4.18162775,   7.60156012,   26.4017601
    560,   8.26029015,   7.60156012,   25.4225597
    561,   12.1355562,   7.60156012,   23.8173714
    562,   15.7120056,   7.60156012,    21.625721
    563,   18.9015732,   7.60156012,   18.9015732
    564,    21.625721,   7.60156012,   15.7120056
    565,   23.8173714,   7.60156012,   12.1355562
    566,   25.4225597,   7.60156012,   8.26029015
    567,   26.4017601,   7.60156012,   4.18162775
    568,    23.238533,   11.2507744,   -3.6806221
    569,   22.3766518,   11.2507744,   -7.2706151
    570,   20.9637833,   11.2507744,  -10.6815815
    571,   19.0347176,   11.2507744,  -13.8295317
    572,   16.6369534,   11.2507744,  -16.6369534
    573,   13.8295317,   11.2507744,  -19.0347176
    574,   10.6815815,   11.2507744,  -20.9637833
    575,    7.2706151,   11.2507744,  -22.3766518
    576,    3.6806221,   11.2507744,   -23.238533
    577,           0.,   11.2507744,   -23.528204
    578,   -3.6806221,   11.2507744,   -23.238533
    579,   -7.2706151,   11.2507744,  -22.3766518
    580,  -10.6815815,   11.2507744,  -20.9637833
    581,  -13.8295317,   11.2507744,  -19.0347176
    582,  -16.6369534,   11.2507744,  -16.6369534
    583,  -19.0347176,   11.2507744,  -13.8295317
    584,  -20.9637833,   11.2507744,  -10.6815815
    585,  -22.3766518,   11.2507744,   -7.2706151
    586,   -23.238533,   11.2507744,   -3.6806221
    587,   -23.528204,   11.2507744,           0.
    588,   -23.238533,   11.2507744,    3.6806221
    589,  -22.3766518,   11.2507744,    7.2706151
    590,  -20.9637833,   11.2507744,   10.6815815
    591,  -19.0347176,   11.2507744,   13.8295317
    592,  -16.6369534,   11.2507744,   16.6369534
    593,  -13.8295317,   11.2507744,   19.0347176
    594,  -10.6815815,   11.2507744,   20.9637833
    595,   -7.2706151,   11.2507744,   22.3766518
    596,   -3.6806221,   11.2507744,    23.238533
    597,           0.,   11.2507744,    23.528204
    598,    3.6806221,   11.2507744,    23.238533
    599,    7.2706151,   11.2507744,   22.3766518
    600,   10.6815815,   11.2507744,   20.9637833
    601,   13.8295317,   11.2507744,   19.0347176
    602,   16.6369534,   11.2507744,   16.6369534
    603,   19.0347176,   11.2507744,   13.8295317
    604,   20.9637833,   11.2507744,   10.6815815
    605,   22.3766518,   11.2507744,    7.2706151
    606,    23.238533,   11.2507744,    3.6806221
    607,   21.1112709,   15.1048317,  -3.34369683
    608,   20.3282871,   15.1048317,  -6.60506058
    609,   19.0447521,   15.1048317,   -9.7037859
    610,   17.2922726,   15.1048317,  -12.5635719
    611,   15.1140013,   15.1048317,  -15.1140013
    612,   12.5635719,   15.1048317,  -17.2922726
    613,    9.7037859,   15.1048317,  -19.0447521
    614,   6.60506058,   15.1048317,  -20.3282871
    615,   3.34369683,   15.1048317,  -21.1112709
    616,           0.,   15.1048317,  -21.3744259
    617,  -3.34369683,   15.1048317,  -21.1112709
    618,  -6.60506058,   15.1048317,  -20.3282871
    619,   -9.7037859,   15.1048317,  -19.0447521
    620,  -12.5635719,   15.1048317,  -17.2922726
    621,  -15.1140013,   15.1048317,  -15.1140013
    622,  -17.2922726,   15.1048317,  -12.5635719
    623,  -19.0447521,   15.1048317,   -9.7037859
    624,  -20.3282871,   15.1048317,  -6.60506058
    625,  -21.1112709,   15.1048317,  -3.34369683
    626,  -21.3744259,   15.1048317,           0.
    627,  -21.1112709,   15.1048317,   3.34369683
    628,  -20.3282871,   15.1048317,   6.60506058
    629,  -19.0447521,   15.1048317,    9.7037859
    630,  -17.2922726,   15.1048317,   12.5635719
    631,  -15.1140013,   15.1048317,   15.1140013
    632,  -12.5635719,   15.1048317,   17.2922726
    633,   -9.7037859,   15.1048317,   19.0447521
    634,  -6.60506058,   15.1048317,   20.3282871
    635,  -3.34369683,   15.1048317,   21.1112709
    636,           0.,   15.1048317,   21.3744259
    637,   3.34369683,   15.1048317,   21.1112709
    638,   6.60506058,   15.1048317,   20.3282871
    639,    9.7037859,   15.1048317,   19.0447521
    640,   12.5635719,   15.1048317,   17.2922726
    641,   15.1140013,   15.1048317,   15.1140013
    642,   17.2922726,   15.1048317,   12.5635719
    643,   19.0447521,   15.1048317,    9.7037859
    644,   20.3282871,   15.1048317,   6.60506058
    645,   21.1112709,   15.1048317,   3.34369683
    646,   19.9881516,   19.0764256,  -3.16581225
    647,   19.2468224,   19.0764256,  -6.25367165
    648,   18.0315723,   19.0764256,  -9.18754482
    649,   16.3723259,   19.0764256,  -11.8951902
    650,   14.3099375,   19.0764256,  -14.3099375
    651,   11.8951902,   19.0764256,  -16.3723259
    652,   9.18754482,   19.0764256,  -18.0315723
    653,   6.25367165,   19.0764256,  -19.2468224
    654,   3.16581225,   19.0764256,  -19.9881516
    655,           0.,   19.0764256,  -20.2373066
    656,  -3.16581225,   19.0764256,  -19.9881516
    657,  -6.25367165,   19.0764256,  -19.2468224
    658,  -9.18754482,   19.0764256,  -18.0315723
    659,  -11.8951902,   19.0764256,  -16.3723259
    660,  -14.3099375,   19.0764256,  -14.3099375
    661,  -16.3723259,   19.0764256,  -11.8951902
    662,  -18.0315723,   19.0764256,  -9.18754482
    663,  -19.2468224,   19.0764256,  -6.25367165
    664,  -19.9881516,   19.0764256,  -3.16581225
    665,  -20.2373066,   19.0764256,           0.
    666,  -19.9881516,   19.0764256,   3.16581225
    667,  -19.2468224,   19.0764256,   6.25367165
    668,  -18.0315723,   19.0764256,   9.18754482
    669,  -16.3723259,   19.0764256,   11.8951902
    670,  -14.3099375,   19.0764256,   14.3099375
    671,  -11.8951902,   19.0764256,   16.3723259
    672,  -9.18754482,   19.0764256,   18.0315723
    673,  -6.25367165,   19.0764256,   19.2468224
    674,  -3.16581225,   19.0764256,   19.9881516
    675,           0.,   19.0764256,   20.2373066
    676,   3.16581225,   19.0764256,   19.9881516
    677,   6.25367165,   19.0764256,   19.2468224
    678,   9.18754482,   19.0764256,   18.0315723
    679,   11.8951902,   19.0764256,   16.3723259
    680,   14.3099375,   19.0764256,   14.3099375
    681,   16.3723259,   19.0764256,   11.8951902
    682,   18.0315723,   19.0764256,   9.18754482
    683,   19.2468224,   19.0764256,   6.25367165
    684,   19.9881516,   19.0764256,   3.16581225
    685,     19.84655,   23.0904942,   -3.1433847
    686,   19.1104717,   23.0904942,  -6.20936871
    687,   17.9038315,   23.0904942,   -9.1224575
    688,   16.2563381,   23.0904942,  -11.8109207
    689,   14.2085609,   23.0904942,  -14.2085609
    690,   11.8109207,   23.0904942,  -16.2563381
    691,    9.1224575,   23.0904942,  -17.9038315
    692,   6.20936871,   23.0904942,  -19.1104717
    693,    3.1433847,   23.0904942,    -19.84655
    694,           0.,   23.0904942,  -20.0939388
    695,   -3.1433847,   23.0904942,    -19.84655
    696,  -6.20936871,   23.0904942,  -19.1104717
    697,   -9.1224575,   23.0904942,  -17.9038315
    698,  -11.8109207,   23.0904942,  -16.2563381
    699,  -14.2085609,   23.0904942,  -14.2085609
    700,  -16.2563381,   23.0904942,  -11.8109207
    701,  -17.9038315,   23.0904942,   -9.1224575
    702,  -19.1104717,   23.0904942,  -6.20936871
    703,    -19.84655,   23.0904942,   -3.1433847
    704,  -20.0939388,   23.0904942,           0.
    705,    -19.84655,   23.0904942,    3.1433847
    706,  -19.1104717,   23.0904942,   6.20936871
    707,  -17.9038315,   23.0904942,    9.1224575
    708,  -16.2563381,   23.0904942,   11.8109207
    709,  -14.2085609,   23.0904942,   14.2085609
    710,  -11.8109207,   23.0904942,   16.2563381
    711,   -9.1224575,   23.0904942,   17.9038315
    712,  -6.20936871,   23.0904942,   19.1104717
    713,   -3.1433847,   23.0904942,     19.84655
    714,           0.,   23.0904942,   20.0939388
    715,    3.1433847,   23.0904942,     19.84655
    716,   6.20936871,   23.0904942,   19.1104717
    717,    9.1224575,   23.0904942,   17.9038315
    718,   11.8109207,   23.0904942,   16.2563381
    719,   14.2085609,   23.0904942,   14.2085609
    720,   16.2563381,   23.0904942,   11.8109207
    721,   17.9038315,   23.0904942,    9.1224575
    722,   19.1104717,   23.0904942,   6.20936871
    723,     19.84655,   23.0904942,    3.1433847
    724,   20.6827698,   27.0802307,  -3.27582908
    725,    19.915678,   27.0802307,  -6.47099638
    726,   18.6581974,   27.0802307,   -9.5068264
    727,    16.941288,   27.0802307,  -12.3085661
    728,    14.807229,   27.0802307,   -14.807229
    729,   12.3085661,   27.0802307,   -16.941288
    730,    9.5068264,   27.0802307,  -18.6581974
    731,   6.47099638,   27.0802307,   -19.915678
    732,   3.27582908,   27.0802307,  -20.6827698
    733,           0.,   27.0802307,  -20.9405842
    734,  -3.27582908,   27.0802307,  -20.6827698
    735,  -6.47099638,   27.0802307,   -19.915678
    736,   -9.5068264,   27.0802307,  -18.6581974
    737,  -12.3085661,   27.0802307,   -16.941288
    738,   -14.807229,   27.0802307,   -14.807229
    739,   -16.941288,   27.0802307,  -12.3085661
    740,  -18.6581974,   27.0802307,   -9.5068264
    741,   -19.915678,   27.0802307,  -6.47099638
    742,  -20.6827698,   27.0802307,  -3.27582908
    743,  -20.9405842,   27.0802307,           0.
    744,  -20.6827698,   27.0802307,   3.27582908
    745,   -19.915678,   27.0802307,   6.47099638
    746,  -18.6581974,   27.0802307,    9.5068264
    747,   -16.941288,   27.0802307,   12.3085661
    748,   -14.807229,   27.0802307,    14.807229
    749,  -12.3085661,   27.0802307,    16.941288
    750,   -9.5068264,   27.0802307,   18.6581974
    751,  -6.47099638,   27.0802307,    19.915678
    752,  -3.27582908,   27.0802307,   20.6827698
    753,           0.,   27.0802307,   20.9405842
    754,   3.27582908,   27.0802307,   20.6827698
    755,   6.47099638,   27.0802307,    19.915678
    756,    9.5068264,   27.0802307,   18.6581974
    757,   12.3085661,   27.0802307,    16.941288
    758,    14.807229,   27.0802307,    14.807229
    759,    16.941288,   27.0802307,   12.3085661
    760,   18.6581974,   27.0802307,    9.5068264
    761,    19.915678,   27.0802307,   6.47099638
    762,   20.6827698,   27.0802307,   3.27582908
    763,   22.5142746,   30.9751549,  -3.56591082
    764,   21.6792564,   30.9751549,  -7.04401731
    765,    20.310421,   30.9751549,  -10.3486767
    766,   18.4414768,   30.9751549,  -13.3985167
    767,   16.1184406,   30.9751549,  -16.1184406
    768,   13.3985167,   30.9751549,  -18.4414768
    769,   10.3486767,   30.9751549,   -20.310421
    770,   7.04401731,   30.9751549,  -21.6792564
    771,   3.56591082,   30.9751549,  -22.5142746
    772,           0.,   30.9751549,  -22.7949181
    773,  -3.56591082,   30.9751549,  -22.5142746
    774,  -7.04401731,   30.9751549,  -21.6792564
    775,  -10.3486767,   30.9751549,   -20.310421
    776,  -13.3985167,   30.9751549,  -18.4414768
    777,  -16.1184406,   30.9751549,  -16.1184406
    778,  -18.4414768,   30.9751549,  -13.3985167
    779,   -20.310421,   30.9751549,  -10.3486767
    780,  -21.6792564,   30.9751549,  -7.04401731
    781,  -22.5142746,   30.9751549,  -3.56591082
    782,  -22.7949181,   30.9751549,           0.
    783,  -22.5142746,   30.9751549,   3.56591082
    784,  -21.6792564,   30.9751549,   7.04401731
    785,   -20.310421,   30.9751549,   10.3486767
    786,  -18.4414768,   30.9751549,   13.3985167
    787,  -16.1184406,   30.9751549,   16.1184406
    788,  -13.3985167,   30.9751549,   18.4414768
    789,  -10.3486767,   30.9751549,    20.310421
    790,  -7.04401731,   30.9751549,   21.6792564
    791,  -3.56591082,   30.9751549,   22.5142746
    792,           0.,   30.9751549,   22.7949181
    793,   3.56591082,   30.9751549,   22.5142746
    794,   7.04401731,   30.9751549,   21.6792564
    795,   10.3486767,   30.9751549,    20.310421
    796,   13.3985167,   30.9751549,   18.4414768
    797,   16.1184406,   30.9751549,   16.1184406
    798,   18.4414768,   30.9751549,   13.3985167
    799,    20.310421,   30.9751549,   10.3486767
    800,   21.6792564,   30.9751549,   7.04401731
    801,   22.5142746,   30.9751549,   3.56591082
    802,   25.3724384,   34.6931496,  -4.01859903
    803,   24.4314137,   34.6931496,   -7.9382472
    804,   22.8888073,   34.6931496,  -11.6624298
    805,   20.7826004,   34.6931496,  -15.0994444
    806,   18.1646595,   34.6931496,  -18.1646595
    807,   15.0994444,   34.6931496,  -20.7826004
    808,   11.6624298,   34.6931496,  -22.8888073
    809,    7.9382472,   34.6931496,  -24.4314137
    810,   4.01859903,   34.6931496,  -25.3724384
    811,           0.,   34.6931496,  -25.6887074
    812,  -4.01859903,   34.6931496,  -25.3724384
    813,   -7.9382472,   34.6931496,  -24.4314137
    814,  -11.6624298,   34.6931496,  -22.8888073
    815,  -15.0994444,   34.6931496,  -20.7826004
    816,  -18.1646595,   34.6931496,  -18.1646595
    817,  -20.7826004,   34.6931496,  -15.0994444
    818,  -22.8888073,   34.6931496,  -11.6624298
    819,  -24.4314137,   34.6931496,   -7.9382472
    820,  -25.3724384,   34.6931496,  -4.01859903
    821,  -25.6887074,   34.6931496,           0.
    822,  -25.3724384,   34.6931496,   4.01859903
    823,  -24.4314137,   34.6931496,    7.9382472
    824,  -22.8888073,   34.6931496,   11.6624298
    825,  -20.7826004,   34.6931496,   15.0994444
    826,  -18.1646595,   34.6931496,   18.1646595
    827,  -15.0994444,   34.6931496,   20.7826004
    828,  -11.6624298,   34.6931496,   22.8888073
    829,   -7.9382472,   34.6931496,   24.4314137
    830,  -4.01859903,   34.6931496,   25.3724384
    831,           0.,   34.6931496,   25.6887074
    832,   4.01859903,   34.6931496,   25.3724384
    833,    7.9382472,   34.6931496,   24.4314137
    834,   11.6624298,   34.6931496,   22.8888073
    835,   15.0994444,   34.6931496,   20.7826004
    836,   18.1646595,   34.6931496,   18.1646595
    837,   20.7826004,   34.6931496,   15.0994444
    838,   22.8888073,   34.6931496,   11.6624298
    839,   24.4314137,   34.6931496,    7.9382472
    840,   25.3724384,   34.6931496,   4.01859903
*Element, type=S4R
 1,   1,  50, 451,  51
 2,  50,  49, 452, 451
 3,  49,  48, 453, 452
 4,  48,  47, 454, 453
 5,  47,  46, 455, 454
 6,  46,  45, 456, 455
 7,  45,  44, 457, 456
 8,  44,  43, 458, 457
 9,  43,  42, 459, 458
10,  42,  41, 460, 459
11,  41,  40, 461, 460
12,  40,  39, 462, 461
13,  39,  38, 463, 462
14,  38,  37, 464, 463
15,  37,  36, 465, 464
16,  36,  35, 466, 465
17,  35,  34, 467, 466
18,  34,  33, 468, 467
19,  33,  32, 469, 468
20,  32,  31, 470, 469
21,  31,  30, 471, 470
22,  30,  29, 472, 471
23,  29,  28, 473, 472
24,  28,  27, 474, 473
25,  27,  26, 475, 474
26,  26,  25, 476, 475
27,  25,  24, 477, 476
28,  24,  23, 478, 477
29,  23,  22, 479, 478
30,  22,  21, 480, 479
31,  21,  20, 481, 480
32,  20,  19, 482, 481
33,  19,  18, 483, 482
34,  18,  17, 484, 483
35,  17,  16, 485, 484
36,  16,  15, 486, 485
37,  15,  14, 487, 486
38,  14,  13, 488, 487
39,  13,  12, 489, 488
40,  12,   1,  51, 489
41,  51, 451,  90,   2
42, 451, 452,  89,  90
43, 452, 453,  88,  89
44, 453, 454,  87,  88
45, 454, 455,  86,  87
46, 455, 456,  85,  86
47, 456, 457,  84,  85
48, 457, 458,  83,  84
49, 458, 459,  82,  83
50, 459, 460,  81,  82
51, 460, 461,  80,  81
52, 461, 462,  79,  80
53, 462, 463,  78,  79
54, 463, 464,  77,  78
55, 464, 465,  76,  77
56, 465, 466,  75,  76
57, 466, 467,  74,  75
58, 467, 468,  73,  74
59, 468, 469,  72,  73
60, 469, 470,  71,  72
61, 470, 471,  70,  71
62, 471, 472,  69,  70
63, 472, 473,  68,  69
64, 473, 474,  67,  68
65, 474, 475,  66,  67
66, 475, 476,  65,  66
67, 476, 477,  64,  65
68, 477, 478,  63,  64
69, 478, 479,  62,  63
70, 479, 480,  61,  62
71, 480, 481,  60,  61
72, 481, 482,  59,  60
73, 482, 483,  58,  59
74, 483, 484,  57,  58
75, 484, 485,  56,  57
76, 485, 486,  55,  56
77, 486, 487,  54,  55
78, 487, 488,  53,  54
79, 488, 489,  52,  53
80, 489,  51,   2,  52
 81,   3, 129, 490, 130
 82, 129, 128, 491, 490
 83, 128, 127, 492, 491
 84, 127, 126, 493, 492
 85, 126, 125, 494, 493
 86, 125, 124, 495, 494
 87, 124, 123, 496, 495
 88, 123, 122, 497, 496
 89, 122, 121, 498, 497
 90, 121, 120, 499, 498
 91, 120, 119, 500, 499
 92, 119, 118, 501, 500
 93, 118, 117, 502, 501
 94, 117, 116, 503, 502
 95, 116, 115, 504, 503
 96, 115, 114, 505, 504
 97, 114, 113, 506, 505
 98, 113, 112, 507, 506
 99, 112, 111, 508, 507
100, 111, 110, 509, 508
101, 110, 109, 510, 509
102, 109, 108, 511, 510
103, 108, 107, 512, 511
104, 107, 106, 513, 512
105, 106, 105, 514, 513
106, 105, 104, 515, 514
107, 104, 103, 516, 515
108, 103, 102, 517, 516
109, 102, 101, 518, 517
110, 101, 100, 519, 518
111, 100,  99, 520, 519
112,  99,  98, 521, 520
113,  98,  97, 522, 521
114,  97,  96, 523, 522
115,  96,  95, 524, 523
116,  95,  94, 525, 524
117,  94,  93, 526, 525
118,  93,  92, 527, 526
119,  92,  91, 528, 527
120,  91,   3, 130, 528
121, 130, 490,  50,   1
122, 490, 491,  49,  50
123, 491, 492,  48,  49
124, 492, 493,  47,  48
125, 493, 494,  46,  47
126, 494, 495,  45,  46
127, 495, 496,  44,  45
128, 496, 497,  43,  44
129, 497, 498,  42,  43
130, 498, 499,  41,  42
131, 499, 500,  40,  41
132, 500, 501,  39,  40
133, 501, 502,  38,  39
134, 502, 503,  37,  38
135, 503, 504,  36,  37
136, 504, 505,  35,  36
137, 505, 506,  34,  35
138, 506, 507,  33,  34
139, 507, 508,  32,  33
140, 508, 509,  31,  32
141, 509, 510,  30,  31
142, 510, 511,  29,  30
143, 511, 512,  28,  29
144, 512, 513,  27,  28
145, 513, 514,  26,  27
146, 514, 515,  25,  26
147, 515, 516,  24,  25
148, 516, 517,  23,  24
149, 517, 518,  22,  23
150, 518, 519,  21,  22
151, 519, 520,  20,  21
152, 520, 521,  19,  20
153, 521, 522,  18,  19
154, 522, 523,  17,  18
155, 523, 524,  16,  17
156, 524, 525,  15,  16
157, 525, 526,  14,  15
158, 526, 527,  13,  14
159, 527, 528,  12,  13
160, 528, 130,   1,  12
161,   4, 169, 529, 170
162, 169, 168, 530, 529
163, 168, 167, 531, 530
164, 167, 166, 532, 531
165, 166, 165, 533, 532
166, 165, 164, 534, 533
167, 164, 163, 535, 534
168, 163, 162, 536, 535
169, 162, 161, 537, 536
170, 161, 160, 538, 537
171, 160, 159, 539, 538
172, 159, 158, 540, 539
173, 158, 157, 541, 540
174, 157, 156, 542, 541
175, 156, 155, 543, 542
176, 155, 154, 544, 543
177, 154, 153, 545, 544
178, 153, 152, 546, 545
179, 152, 151, 547, 546
180, 151, 150, 548, 547
181, 150, 149, 549, 548
182, 149, 148, 550, 549
183, 148, 147, 551, 550
184, 147, 146, 552, 551
185, 146, 145, 553, 552
186, 145, 144, 554, 553
187, 144, 143, 555, 554
188, 143, 142, 556, 555
189, 142, 141, 557, 556
190, 141, 140, 558, 557
191, 140, 139, 559, 558
192, 139, 138, 560, 559
193, 138, 137, 561, 560
194, 137, 136, 562, 561
195, 136, 135, 563, 562
196, 135, 134, 564, 563
197, 134, 133, 565, 564
198, 133, 132, 566, 565
199, 132, 131, 567, 566
200, 131,   4, 170, 567
201, 170, 529, 129,   3
202, 529, 530, 128, 129
203, 530, 531, 127, 128
204, 531, 532, 126, 127
205, 532, 533, 125, 126
206, 533, 534, 124, 125
207, 534, 535, 123, 124
208, 535, 536, 122, 123
209, 536, 537, 121, 122
210, 537, 538, 120, 121
211, 538, 539, 119, 120
212, 539, 540, 118, 119
213, 540, 541, 117, 118
214, 541, 542, 116, 117
215, 542, 543, 115, 116
216, 543, 544, 114, 115
217, 544, 545, 113, 114
218, 545, 546, 112, 113
219, 546, 547, 111, 112
220, 547, 548, 110, 111
221, 548, 549, 109, 110
222, 549, 550, 108, 109
223, 550, 551, 107, 108
224, 551, 552, 106, 107
225, 552, 553, 105, 106
226, 553, 554, 104, 105
227, 554, 555, 103, 104
228, 555, 556, 102, 103
229, 556, 557, 101, 102
230, 557, 558, 100, 101
231, 558, 559,  99, 100
232, 559, 560,  98,  99
233, 560, 561,  97,  98
234, 561, 562,  96,  97
235, 562, 563,  95,  96
236, 563, 564,  94,  95
237, 564, 565,  93,  94
238, 565, 566,  92,  93
239, 566, 567,  91,  92
240, 567, 170,   3,  91
241,   5, 209, 568, 210
242, 209, 208, 569, 568
243, 208, 207, 570, 569
244, 207, 206, 571, 570
245, 206, 205, 572, 571
246, 205, 204, 573, 572
247, 204, 203, 574, 573
248, 203, 202, 575, 574
249, 202, 201, 576, 575
250, 201, 200, 577, 576
251, 200, 199, 578, 577
252, 199, 198, 579, 578
253, 198, 197, 580, 579
254, 197, 196, 581, 580
255, 196, 195, 582, 581
256, 195, 194, 583, 582
257, 194, 193, 584, 583
258, 193, 192, 585, 584
259, 192, 191, 586, 585
260, 191, 190, 587, 586
261, 190, 189, 588, 587
262, 189, 188, 589, 588
263, 188, 187, 590, 589
264, 187, 186, 591, 590
265, 186, 185, 592, 591
266, 185, 184, 593, 592
267, 184, 183, 594, 593
268, 183, 182, 595, 594
269, 182, 181, 596, 595
270, 181, 180, 597, 596
271, 180, 179, 598, 597
272, 179, 178, 599, 598
273, 178, 177, 600, 599
274, 177, 176, 601, 600
275, 176, 175, 602, 601
276, 175, 174, 603, 602
277, 174, 173, 604, 603
278, 173, 172, 605, 604
279, 172, 171, 606, 605
280, 171,   5, 210, 606
281, 210, 568, 169,   4
282, 568, 569, 168, 169
283, 569, 570, 167, 168
284, 570, 571, 166, 167
285, 571, 572, 165, 166
286, 572, 573, 164, 165
287, 573, 574, 163, 164
288, 574, 575, 162, 163
289, 575, 576, 161, 162
290, 576, 577, 160, 161
291, 577, 578, 159, 160
292, 578, 579, 158, 159
293, 579, 580, 157, 158
294, 580, 581, 156, 157
295, 581, 582, 155, 156
296, 582, 583, 154, 155
297, 583, 584, 153, 154
298, 584, 585, 152, 153
299, 585, 586, 151, 152
300, 586, 587, 150, 151
301, 587, 588, 149, 150
302, 588, 589, 148, 149
303, 589, 590, 147, 148
304, 590, 591, 146, 147
305, 591, 592, 145, 146
306, 592, 593, 144, 145
307, 593, 594, 143, 144
308, 594, 595, 142, 143
309, 595, 596, 141, 142
310, 596, 597, 140, 141
311, 597, 598, 139, 140
312, 598, 599, 138, 139
313, 599, 600, 137, 138
314, 600, 601, 136, 137
315, 601, 602, 135, 136
316, 602, 603, 134, 135
317, 603, 604, 133, 134
318, 604, 605, 132, 133
319, 605, 606, 131, 132
320, 606, 210,   4, 131
321,   6, 249, 607, 250
322, 249, 248, 608, 607
323, 248, 247, 609, 608
324, 247, 246, 610, 609
325, 246, 245, 611, 610
326, 245, 244, 612, 611
327, 244, 243, 613, 612
328, 243, 242, 614, 613
329, 242, 241, 615, 614
330, 241, 240, 616, 615
331, 240, 239, 617, 616
332, 239, 238, 618, 617
333, 238, 237, 619, 618
334, 237, 236, 620, 619
335, 236, 235, 621, 620
336, 235, 234, 622, 621
337, 234, 233, 623, 622
338, 233, 232, 624, 623
339, 232, 231, 625, 624
340, 231, 230, 626, 625
341, 230, 229, 627, 626
342, 229, 228, 628, 627
343, 228, 227, 629, 628
344, 227, 226, 630, 629
345, 226, 225, 631, 630
346, 225, 224, 632, 631
347, 224, 223, 633, 632
348, 223, 222, 634, 633
349, 222, 221, 635, 634
350, 221, 220, 636, 635
351, 220, 219, 637, 636
352, 219, 218, 638, 637
353, 218, 217, 639, 638
354, 217, 216, 640, 639
355, 216, 215, 641, 640
356, 215, 214, 642, 641
357, 214, 213, 643, 642
358, 213, 212, 644, 643
359, 212, 211, 645, 644
360, 211,   6, 250, 645
361, 250, 607, 209,   5
362, 607, 608, 208, 209
363, 608, 609, 207, 208
364, 609, 610, 206, 207
365, 610, 611, 205, 206
366, 611, 612, 204, 205
367, 612, 613, 203, 204
368, 613, 614, 202, 203
369, 614, 615, 201, 202
370, 615, 616, 200, 201
371, 616, 617, 199, 200
372, 617, 618, 198, 199
373, 618, 619, 197, 198
374, 619, 620, 196, 197
375, 620, 621, 195, 196
376, 621, 622, 194, 195
377, 622, 623, 193, 194
378, 623, 624, 192, 193
379, 624, 625, 191, 192
380, 625, 626, 190, 191
381, 626, 627, 189, 190
382, 627, 628, 188, 189
383, 628, 629, 187, 188
384, 629, 630, 186, 187
385, 630, 631, 185, 186
386, 631, 632, 184, 185
387, 632, 633, 183, 184
388, 633, 634, 182, 183
389, 634, 635, 181, 182
390, 635, 636, 180, 181
391, 636, 637, 179, 180
392, 637, 638, 178, 179
393, 638, 639, 177, 178
394, 639, 640, 176, 177
395, 640, 641, 175, 176
396, 641, 642, 174, 175
397, 642, 643, 173, 174
398, 643, 644, 172, 173
399, 644, 645, 171, 172
400, 645, 250,   5, 171
401,   7, 289, 646, 290
402, 289, 288, 647, 646
403, 288, 287, 648, 647
404, 287, 286, 649, 648
405, 286, 285, 650, 649
406, 285, 284, 651, 650
407, 284, 283, 652, 651
408, 283, 282, 653, 652
409, 282, 281, 654, 653
410, 281, 280, 655, 654
411, 280, 279, 656, 655
412, 279, 278, 657, 656
413, 278, 277, 658, 657
414, 277, 276, 659, 658
415, 276, 275, 660, 659
416, 275, 274, 661, 660
417, 274, 273, 662, 661
418, 273, 272, 663, 662
419, 272, 271, 664, 663
420, 271, 270, 665, 664
421, 270, 269, 666, 665
422, 269, 268, 667, 666
423, 268, 267, 668, 667
424, 267, 266, 669, 668
425, 266, 265, 670, 669
426, 265, 264, 671, 670
427, 264, 263, 672, 671
428, 263, 262, 673, 672
429, 262, 261, 674, 673
430, 261, 260, 675, 674
431, 260, 259, 676, 675
432, 259, 258, 677, 676
433, 258, 257, 678, 677
434, 257, 256, 679, 678
435, 256, 255, 680, 679
436, 255, 254, 681, 680
437, 254, 253, 682, 681
438, 253, 252, 683, 682
439, 252, 251, 684, 683
440, 251,   7, 290, 684
441, 290, 646, 249,   6
442, 646, 647, 248, 249
443, 647, 648, 247, 248
444, 648, 649, 246, 247
445, 649, 650, 245, 246
446, 650, 651, 244, 245
447, 651, 652, 243, 244
448, 652, 653, 242, 243
449, 653, 654, 241, 242
450, 654, 655, 240, 241
451, 655, 656, 239, 240
452, 656, 657, 238, 239
453, 657, 658, 237, 238
454, 658, 659, 236, 237
455, 659, 660, 235, 236
456, 660, 661, 234, 235
457, 661, 662, 233, 234
458, 662, 663, 232, 233
459, 663, 664, 231, 232
460, 664, 665, 230, 231
461, 665, 666, 229, 230
462, 666, 667, 228, 229
463, 667, 668, 227, 228
464, 668, 669, 226, 227
465, 669, 670, 225, 226
466, 670, 671, 224, 225
467, 671, 672, 223, 224
468, 672, 673, 222, 223
469, 673, 674, 221, 222
470, 674, 675, 220, 221
471, 675, 676, 219, 220
472, 676, 677, 218, 219
473, 677, 678, 217, 218
474, 678, 679, 216, 217
475, 679, 680, 215, 216
476, 680, 681, 214, 215
477, 681, 682, 213, 214
478, 682, 683, 212, 213
479, 683, 684, 211, 212
480, 684, 290,   6, 211
481,   8, 329, 685, 330
482, 329, 328, 686, 685
483, 328, 327, 687, 686
484, 327, 326, 688, 687
485, 326, 325, 689, 688
486, 325, 324, 690, 689
487, 324, 323, 691, 690
488, 323, 322, 692, 691
489, 322, 321, 693, 692
490, 321, 320, 694, 693
491, 320, 319, 695, 694
492, 319, 318, 696, 695
493, 318, 317, 697, 696
494, 317, 316, 698, 697
495, 316, 315, 699, 698
496, 315, 314, 700, 699
497, 314, 313, 701, 700
498, 313, 312, 702, 701
499, 312, 311, 703, 702
500, 311, 310, 704, 703
501, 310, 309, 705, 704
502, 309, 308, 706, 705
503, 308, 307, 707, 706
504, 307, 306, 708, 707
505, 306, 305, 709, 708
506, 305, 304, 710, 709
507, 304, 303, 711, 710
508, 303, 302, 712, 711
509, 302, 301, 713, 712
510, 301, 300, 714, 713
511, 300, 299, 715, 714
512, 299, 298, 716, 715
513, 298, 297, 717, 716
514, 297, 296, 718, 717
515, 296, 295, 719, 718
516, 295, 294, 720, 719
517, 294, 293, 721, 720
518, 293, 292, 722, 721
519, 292, 291, 723, 722
520, 291,   8, 330, 723
521, 330, 685, 289,   7
522, 685, 686, 288, 289
523, 686, 687, 287, 288
524, 687, 688, 286, 287
525, 688, 689, 285, 286
526, 689, 690, 284, 285
527, 690, 691, 283, 284
528, 691, 692, 282, 283
529, 692, 693, 281, 282
530, 693, 694, 280, 281
531, 694, 695, 279, 280
532, 695, 696, 278, 279
533, 696, 697, 277, 278
534, 697, 698, 276, 277
535, 698, 699, 275, 276
536, 699, 700, 274, 275
537, 700, 701, 273, 274
538, 701, 702, 272, 273
539, 702, 703, 271, 272
540, 703, 704, 270, 271
541, 704, 705, 269, 270
542, 705, 706, 268, 269
543, 706, 707, 267, 268
544, 707, 708, 266, 267
545, 708, 709, 265, 266
546, 709, 710, 264, 265
547, 710, 711, 263, 264
548, 711, 712, 262, 263
549, 712, 713, 261, 262
550, 713, 714, 260, 261
551, 714, 715, 259, 260
552, 715, 716, 258, 259
553, 716, 717, 257, 258
554, 717, 718, 256, 257
555, 718, 719, 255, 256
556, 719, 720, 254, 255
557, 720, 721, 253, 254
558, 721, 722, 252, 253
559, 722, 723, 251, 252
560, 723, 330,   7, 251
561,   9, 369, 724, 370
562, 369, 368, 725, 724
563, 368, 367, 726, 725
564, 367, 366, 727, 726
565, 366, 365, 728, 727
566, 365, 364, 729, 728
567, 364, 363, 730, 729
568, 363, 362, 731, 730
569, 362, 361, 732, 731
570, 361, 360, 733, 732
571, 360, 359, 734, 733
572, 359, 358, 735, 734
573, 358, 357, 736, 735
574, 357, 356, 737, 736
575, 356, 355, 738, 737
576, 355, 354, 739, 738
577, 354, 353, 740, 739
578, 353, 352, 741, 740
579, 352, 351, 742, 741
580, 351, 350, 743, 742
581, 350, 349, 744, 743
582, 349, 348, 745, 744
583, 348, 347, 746, 745
584, 347, 346, 747, 746
585, 346, 345, 748, 747
586, 345, 344, 749, 748
587, 344, 343, 750, 749
588, 343, 342, 751, 750
589, 342, 341, 752, 751
590, 341, 340, 753, 752
591, 340, 339, 754, 753
592, 339, 338, 755, 754
593, 338, 337, 756, 755
594, 337, 336, 757, 756
595, 336, 335, 758, 757
596, 335, 334, 759, 758
597, 334, 333, 760, 759
598, 333, 332, 761, 760
599, 332, 331, 762, 761
600, 331,   9, 370, 762
601, 370, 724, 329,   8
602, 724, 725, 328, 329
603, 725, 726, 327, 328
604, 726, 727, 326, 327
605, 727, 728, 325, 326
606, 728, 729, 324, 325
607, 729, 730, 323, 324
608, 730, 731, 322, 323
609, 731, 732, 321, 322
610, 732, 733, 320, 321
611, 733, 734, 319, 320
612, 734, 735, 318, 319
613, 735, 736, 317, 318
614, 736, 737, 316, 317
615, 737, 738, 315, 316
616, 738, 739, 314, 315
617, 739, 740, 313, 314
618, 740, 741, 312, 313
619, 741, 742, 311, 312
620, 742, 743, 310, 311
621, 743, 744, 309, 310
622, 744, 745, 308, 309
623, 745, 746, 307, 308
624, 746, 747, 306, 307
625, 747, 748, 305, 306
626, 748, 749, 304, 305
627, 749, 750, 303, 304
628, 750, 751, 302, 303
629, 751, 752, 301, 302
630, 752, 753, 300, 301
631, 753, 754, 299, 300
632, 754, 755, 298, 299
633, 755, 756, 297, 298
634, 756, 757, 296, 297
635, 757, 758, 295, 296
636, 758, 759, 294, 295
637, 759, 760, 293, 294
638, 760, 761, 292, 293
639, 761, 762, 291, 292
640, 762, 370,   8, 291
641,  10, 409, 763, 410
642, 409, 408, 764, 763
643, 408, 407, 765, 764
644, 407, 406, 766, 765
645, 406, 405, 767, 766
646, 405, 404, 768, 767
647, 404, 403, 769, 768
648, 403, 402, 770, 769
649, 402, 401, 771, 770
650, 401, 400, 772, 771
651, 400, 399, 773, 772
652, 399, 398, 774, 773
653, 398, 397, 775, 774
654, 397, 396, 776, 775
655, 396, 395, 777, 776
656, 395, 394, 778, 777
657, 394, 393, 779, 778
658, 393, 392, 780, 779
659, 392, 391, 781, 780
660, 391, 390, 782, 781
661, 390, 389, 783, 782
662, 389, 388, 784, 783
663, 388, 387, 785, 784
664, 387, 386, 786, 785
665, 386, 385, 787, 786
666, 385, 384, 788, 787
667, 384, 383, 789, 788
668, 383, 382, 790, 789
669, 382, 381, 791, 790
670, 381, 380, 792, 791
671, 380, 379, 793, 792
672, 379, 378, 794, 793
673, 378, 377, 795, 794
674, 377, 376, 796, 795
675, 376, 375, 797, 796
676, 375, 374, 798, 797
677, 374, 373, 799, 798
678, 373, 372, 800, 799
679, 372, 371, 801, 800
680, 371,  10, 410, 801
681, 410, 763, 369,   9
682, 763, 764, 368, 369
683, 764, 765, 367, 368
684, 765, 766, 366, 367
685, 766, 767, 365, 366
686, 767, 768, 364, 365
687, 768, 769, 363, 364
688, 769, 770, 362, 363
689, 770, 771, 361, 362
690, 771, 772, 360, 361
691, 772, 773, 359, 360
692, 773, 774, 358, 359
693, 774, 775, 357, 358
694, 775, 776, 356, 357
695, 776, 777, 355, 356
696, 777, 778, 354, 355
697, 778, 779, 353, 354
698, 779, 780, 352, 353
699, 780, 781, 351, 352
700, 781, 782, 350, 351
701, 782, 783, 349, 350
702, 783, 784, 348, 349
703, 784, 785, 347, 348
704, 785, 786, 346, 347
705, 786, 787, 345, 346
706, 787, 788, 344, 345
707, 788, 789, 343, 344
708, 789, 790, 342, 343
709, 790, 791, 341, 342
710, 791, 792, 340, 341
711, 792, 793, 339, 340
712, 793, 794, 338, 339
713, 794, 795, 337, 338
714, 795, 796, 336, 337
715, 796, 797, 335, 336
716, 797, 798, 334, 335
717, 798, 799, 333, 334
718, 799, 800, 332, 333
719, 800, 801, 331, 332
720, 801, 410,   9, 331
721,  11, 449, 802, 450
722, 449, 448, 803, 802
723, 448, 447, 804, 803
724, 447, 446, 805, 804
725, 446, 445, 806, 805
726, 445, 444, 807, 806
727, 444, 443, 808, 807
728, 443, 442, 809, 808
729, 442, 441, 810, 809
730, 441, 440, 811, 810
731, 440, 439, 812, 811
732, 439, 438, 813, 812
733, 438, 437, 814, 813
734, 437, 436, 815, 814
735, 436, 435, 816, 815
736, 435, 434, 817, 816
737, 434, 433, 818, 817
738, 433, 432, 819, 818
739, 432, 431, 820, 819
740, 431, 430, 821, 820
741, 430, 429, 822, 821
742, 429, 428, 823, 822
743, 428, 427, 824, 823
744, 427, 426, 825, 824
745, 426, 425, 826, 825
746, 425, 424, 827, 826
747, 424, 423, 828, 827
748, 423, 422, 829, 828
749, 422, 421, 830, 829
750, 421, 420, 831, 830
751, 420, 419, 832, 831
752, 419, 418, 833, 832
753, 418, 417, 834, 833
754, 417, 416, 835, 834
755, 416, 415, 836, 835
756, 415, 414, 837, 836
757, 414, 413, 838, 837
758, 413, 412, 839, 838
759, 412, 411, 840, 839
760, 411,  11, 450, 840
761, 450, 802, 409,  10
762, 802, 803, 408, 409
763, 803, 804, 407, 408
764, 804, 805, 406, 407
765, 805, 806, 405, 406
766, 806, 807, 404, 405
767, 807, 808, 403, 404
768, 808, 809, 402, 403
769, 809, 810, 401, 402
770, 810, 811, 400, 401
771, 811, 812, 399, 400
772, 812, 813, 398, 399
773, 813, 814, 397, 398
774, 814, 815, 396, 397
775, 815, 816, 395, 396
776, 816, 817, 394, 395
777, 817, 818, 393, 394
778, 818, 819, 392, 393
779, 819, 820, 391, 392
780, 820, 821, 390, 391
781, 821, 822, 389, 390
782, 822, 823, 388, 389
783, 823, 824, 387, 388
784, 824, 825, 386, 387
785, 825, 826, 385, 386
786, 826, 827, 384, 385
787, 827, 828, 383, 384
788, 828, 829, 382, 383
789, 829, 830, 381, 382
790, 830, 831, 380, 381
791, 831, 832, 379, 380
792, 832, 833, 378, 379
793, 833, 834, 377, 378
794, 834, 835, 376, 377
795, 835, 836, 375, 376
796, 836, 837, 374, 375
797, 837, 838, 373, 374
798, 838, 839, 372, 373
799, 839, 840, 371, 372
800, 840, 450,  10, 371
*Nset, nset=FALL, generate
   1,  840,    1
*Elset, elset=FALL, generate
   1,  800,    1
*Nset, nset=EBASE
  2, 52, 53, 54, 55, 56, 57, 58, 59, 60, 61, 62, 63, 64, 65, 66
 67, 68, 69, 70, 71, 72, 73, 74, 75, 76, 77, 78, 79, 80, 81, 82
 83, 84, 85, 86, 87, 88, 89, 90
*Elset, elset=EBASE, generate
 41,  80,   1
*Nset, nset=ETOP
  11, 411, 412, 413, 414, 415, 416, 417, 418, 419, 420, 421, 422, 423, 424, 425
 426, 427, 428, 429, 430, 431, 432, 433, 434, 435, 436, 437, 438, 439, 440, 441
 442, 443, 444, 445, 446, 447, 448, 449
*Elset, elset=ETOP, generate
 721,  760,    1
** Section: TowerSection
*Shell Section, elset=FALL, material=EquivalentReinforcedConcrete_C30_37
0.2, 5
*End Part
**  
**
** ASSEMBLY
**
*Assembly, name=Assembly
**  
*Instance, name=Tower-1, part=TowerShell
*End Instance
**  
*Elset, elset=__PickedSurf3_SPOS, internal, instance=Tower-1, generate
   1,  800,    1
*Surface, type=ELEMENT, name=_PickedSurf3, internal
__PickedSurf3_SPOS, SPOS
*End Assembly
** 
** MATERIALS
** 
*Material, name=EquivalentReinforcedConcrete_C30_37
*Density
2500.,
*Elastic
 3.3e+10, 0.2
** 
** BOUNDARY CONDITIONS
** 
** Name: FixBase Type: Displacement/Rotation
*Boundary
Tower-1.EBASE, 1, 1
Tower-1.EBASE, 2, 2
Tower-1.EBASE, 3, 3
Tower-1.EBASE, 4, 4
Tower-1.EBASE, 5, 5
Tower-1.EBASE, 6, 6
** ----------------------------------------------------------------
** 
** STEP: STATIC_WIND
** 
*Step, name=STATIC_WIND, nlgeom=NO
*Static
1., 1., 1e-05, 1.
** 
** LOADS
** 
** Name: SelfWeight   Type: Gravity
*Dload
, GRAV, 9.81, 0., -1., 0.
** Name: Wind   Type: Pressure Using Field: WindCp
*Dload
Tower-1.1, P, 448.613
Tower-1.2, P, 437.566
Tower-1.3, P, 415.746
Tower-1.4, P, 383.688
Tower-1.5, P, 342.183
Tower-1.6, P, 292.252
Tower-1.7, P, 235.124
Tower-1.8, P, 172.208
Tower-1.9, P, 105.05
Tower-1.10, P, 35.3066
Tower-1.11, P, -35.3066
Tower-1.12, P, -105.05
Tower-1.13, P, -172.208
Tower-1.14, P, -235.124
Tower-1.15, P, -281.25
Tower-1.16, P, -281.25
Tower-1.17, P, -281.25
Tower-1.18, P, -281.25
Tower-1.19, P, -281.25
Tower-1.20, P, -281.25
Tower-1.21, P, -281.25
Tower-1.22, P, -281.25
Tower-1.23, P, -281.25
Tower-1.24, P, -281.25
Tower-1.25, P, -281.25
Tower-1.26, P, -281.25
Tower-1.27, P, -235.124
Tower-1.28, P, -172.208
Tower-1.29, P, -105.05
Tower-1.30, P, -35.3066
Tower-1.31, P, 35.3066
Tower-1.32, P, 105.05
Tower-1.33, P, 172.208
Tower-1.34, P, 235.124
Tower-1.35, P, 292.252
Tower-1.36, P, 342.183
Tower-1.37, P, 383.688
Tower-1.38, P, 415.746
Tower-1.39, P, 437.566
Tower-1.40, P, 448.613
Tower-1.41, P, 448.613
Tower-1.42, P, 437.566
Tower-1.43, P, 415.746
Tower-1.44, P, 383.688
Tower-1.45, P, 342.183
Tower-1.46, P, 292.252
Tower-1.47, P, 235.124
Tower-1.48, P, 172.208
Tower-1.49, P, 105.05
Tower-1.50, P, 35.3066
Tower-1.51, P, -35.3066
Tower-1.52, P, -105.05
Tower-1.53, P, -172.208
Tower-1.54, P, -235.124
Tower-1.55, P, -281.25
Tower-1.56, P, -281.25
Tower-1.57, P, -281.25
Tower-1.58, P, -281.25
Tower-1.59, P, -281.25
Tower-1.60, P, -281.25
Tower-1.61, P, -281.25
Tower-1.62, P, -281.25
Tower-1.63, P, -281.25
Tower-1.64, P, -281.25
Tower-1.65, P, -281.25
Tower-1.66, P, -281.25
Tower-1.67, P, -235.124
Tower-1.68, P, -172.208
Tower-1.69, P, -105.05
Tower-1.70, P, -35.3066
Tower-1.71, P, 35.3066
Tower-1.72, P, 105.05
Tower-1.73, P, 172.208
Tower-1.74, P, 235.124
Tower-1.75, P, 292.252
Tower-1.76, P, 342.183
Tower-1.77, P, 383.688
Tower-1.78, P, 415.746
Tower-1.79, P, 437.566
Tower-1.80, P, 448.613
Tower-1.81, P, 448.613
Tower-1.82, P, 437.566
Tower-1.83, P, 415.746
Tower-1.84, P, 383.688
Tower-1.85, P, 342.183
Tower-1.86, P, 292.252
Tower-1.87, P, 235.124
Tower-1.88, P, 172.208
Tower-1.89, P, 105.05
Tower-1.90, P, 35.3066
Tower-1.91, P, -35.3066
Tower-1.92, P, -105.05
Tower-1.93, P, -172.208
Tower-1.94, P, -235.124
Tower-1.95, P, -281.25
Tower-1.96, P, -281.25
Tower-1.97, P, -281.25
Tower-1.98, P, -281.25
Tower-1.99, P, -281.25
Tower-1.100, P, -281.25
Tower-1.101, P, -281.25
Tower-1.102, P, -281.25
Tower-1.103, P, -281.25
Tower-1.104, P, -281.25
Tower-1.105, P, -281.25
Tower-1.106, P, -281.25
Tower-1.107, P, -235.124
Tower-1.108, P, -172.208
Tower-1.109, P, -105.05
Tower-1.110, P, -35.3066
Tower-1.111, P, 35.3066
Tower-1.112, P, 105.05
Tower-1.113, P, 172.208
Tower-1.114, P, 235.124
Tower-1.115, P, 292.252
Tower-1.116, P, 342.183
Tower-1.117, P, 383.688
Tower-1.118, P, 415.746
Tower-1.119, P, 437.566
Tower-1.120, P, 448.613
Tower-1.121, P, 448.613
Tower-1.122, P, 437.566
Tower-1.123, P, 415.746
Tower-1.124, P, 383.688
Tower-1.125, P, 342.183
Tower-1.126, P, 292.252
Tower-1.127, P, 235.124
Tower-1.128, P, 172.208
Tower-1.129, P, 105.05
Tower-1.130, P, 35.3066
Tower-1.131, P, -35.3066
Tower-1.132, P, -105.05
Tower-1.133, P, -172.208
Tower-1.134, P, -235.124
Tower-1.135, P, -281.25
Tower-1.136, P, -281.25
Tower-1.137, P, -281.25
Tower-1.138, P, -281.25
Tower-1.139, P, -281.25
Tower-1.140, P, -281.25
Tower-1.141, P, -281.25
Tower-1.142, P, -281.25
Tower-1.143, P, -281.25
Tower-1.144, P, -281.25
Tower-1.145, P, -281.25
Tower-1.146, P, -281.25
Tower-1.147, P, -235.124
Tower-1.148, P, -172.208
Tower-1.149, P, -105.05
Tower-1.150, P, -35.3066
Tower-1.151, P, 35.3066
Tower-1.152, P, 105.05
Tower-1.153, P, 172.208
Tower-1.154, P, 235.124
Tower-1.155, P, 292.252
Tower-1.156, P, 342.183
Tower-1.157, P, 383.688
Tower-1.158, P, 415.746
Tower-1.159, P, 437.566
Tower-1.160, P, 448.613
Tower-1.161, P, 448.613
Tower-1.162, P, 437.566
Tower-1.163, P, 415.746
Tower-1.164, P, 383.688
Tower-1.165, P, 342.183
Tower-1.166, P, 292.252
Tower-1.167, P, 235.124
Tower-1.168, P, 172.208
Tower-1.169, P, 105.05
Tower-1.170, P, 35.3066
Tower-1.171, P, -35.3066
Tower-1.172, P, -105.05
Tower-1.173, P, -172.208
Tower-1.174, P, -235.124
Tower-1.175, P, -281.25
Tower-1.176, P, -281.25
Tower-1.177, P, -281.25
Tower-1.178, P, -281.25
Tower-1.179, P, -281.25
Tower-1.180, P, -281.25
Tower-1.181, P, -281.25
Tower-1.182, P, -281.25
Tower-1.183, P, -281.25
Tower-1.184, P, -281.25
Tower-1.185, P, -281.25
Tower-1.186, P, -281.25
Tower-1.187, P, -235.124
Tower-1.188, P, -172.208
Tower-1.189, P, -105.05
Tower-1.190, P, -35.3066
Tower-1.191, P, 35.3066
Tower-1.192, P, 105.05
Tower-1.193, P, 172.208
Tower-1.194, P, 235.124
Tower-1.195, P, 292.252
Tower-1.196, P, 342.183
Tower-1.197, P, 383.688
Tower-1.198, P, 415.746
Tower-1.199, P, 437.566
Tower-1.200, P, 448.613
Tower-1.201, P, 448.613
Tower-1.202, P, 437.566
Tower-1.203, P, 415.746
Tower-1.204, P, 383.688
Tower-1.205, P, 342.183
Tower-1.206, P, 292.252
Tower-1.207, P, 235.124
Tower-1.208, P, 172.208
Tower-1.209, P, 105.05
Tower-1.210, P, 35.3066
Tower-1.211, P, -35.3066
Tower-1.212, P, -105.05
Tower-1.213, P, -172.208
Tower-1.214, P, -235.124
Tower-1.215, P, -281.25
Tower-1.216, P, -281.25
Tower-1.217, P, -281.25
Tower-1.218, P, -281.25
Tower-1.219, P, -281.25
Tower-1.220, P, -281.25
Tower-1.221, P, -281.25
Tower-1.222, P, -281.25
Tower-1.223, P, -281.25
Tower-1.224, P, -281.25
Tower-1.225, P, -281.25
Tower-1.226, P, -281.25
Tower-1.227, P, -235.124
Tower-1.228, P, -172.208
Tower-1.229, P, -105.05
Tower-1.230, P, -35.3066
Tower-1.231, P, 35.3066
Tower-1.232, P, 105.05
Tower-1.233, P, 172.208
Tower-1.234, P, 235.124
Tower-1.235, P, 292.252
Tower-1.236, P, 342.183
Tower-1.237, P, 383.688
Tower-1.238, P, 415.746
Tower-1.239, P, 437.566
Tower-1.240, P, 448.613
Tower-1.241, P, 448.613
Tower-1.242, P, 437.566
Tower-1.243, P, 415.746
Tower-1.244, P, 383.688
Tower-1.245, P, 342.183
Tower-1.246, P, 292.252
Tower-1.247, P, 235.124
Tower-1.248, P, 172.208
Tower-1.249, P, 105.05
Tower-1.250, P, 35.3066
Tower-1.251, P, -35.3066
Tower-1.252, P, -105.05
Tower-1.253, P, -172.208
Tower-1.254, P, -235.124
Tower-1.255, P, -281.25
Tower-1.256, P, -281.25
Tower-1.257, P, -281.25
Tower-1.258, P, -281.25
Tower-1.259, P, -281.25
Tower-1.260, P, -281.25
Tower-1.261, P, -281.25
Tower-1.262, P, -281.25
Tower-1.263, P, -281.25
Tower-1.264, P, -281.25
Tower-1.265, P, -281.25
Tower-1.266, P, -281.25
Tower-1.267, P, -235.124
Tower-1.268, P, -172.208
Tower-1.269, P, -105.05
Tower-1.270, P, -35.3066
Tower-1.271, P, 35.3066
Tower-1.272, P, 105.05
Tower-1.273, P, 172.208
Tower-1.274, P, 235.124
Tower-1.275, P, 292.252
Tower-1.276, P, 342.183
Tower-1.277, P, 383.688
Tower-1.278, P, 415.746
Tower-1.279, P, 437.566
Tower-1.280, P, 448.613
Tower-1.281, P, 448.613
Tower-1.282, P, 437.566
Tower-1.283, P, 415.746
Tower-1.284, P, 383.688
Tower-1.285, P, 342.183
Tower-1.286, P, 292.252
Tower-1.287, P, 235.124
Tower-1.288, P, 172.208
Tower-1.289, P, 105.05
Tower-1.290, P, 35.3066
Tower-1.291, P, -35.3066
Tower-1.292, P, -105.05
Tower-1.293, P, -172.208
Tower-1.294, P, -235.124
Tower-1.295, P, -281.25
Tower-1.296, P, -281.25
Tower-1.297, P, -281.25
Tower-1.298, P, -281.25
Tower-1.299, P, -281.25
Tower-1.300, P, -281.25
Tower-1.301, P, -281.25
Tower-1.302, P, -281.25
Tower-1.303, P, -281.25
Tower-1.304, P, -281.25
Tower-1.305, P, -281.25
Tower-1.306, P, -281.25
Tower-1.307, P, -235.124
Tower-1.308, P, -172.208
Tower-1.309, P, -105.05
Tower-1.310, P, -35.3066
Tower-1.311, P, 35.3066
Tower-1.312, P, 105.05
Tower-1.313, P, 172.208
Tower-1.314, P, 235.124
Tower-1.315, P, 292.252
Tower-1.316, P, 342.183
Tower-1.317, P, 383.688
Tower-1.318, P, 415.746
Tower-1.319, P, 437.566
Tower-1.320, P, 448.613
Tower-1.321, P, 448.613
Tower-1.322, P, 437.566
Tower-1.323, P, 415.746
Tower-1.324, P, 383.688
Tower-1.325, P, 342.183
Tower-1.326, P, 292.252
Tower-1.327, P, 235.124
Tower-1.328, P, 172.208
Tower-1.329, P, 105.05
Tower-1.330, P, 35.3066
Tower-1.331, P, -35.3066
Tower-1.332, P, -105.05
Tower-1.333, P, -172.208
Tower-1.334, P, -235.124
Tower-1.335, P, -281.25
Tower-1.336, P, -281.25
Tower-1.337, P, -281.25
Tower-1.338, P, -281.25
Tower-1.339, P, -281.25
Tower-1.340, P, -281.25
Tower-1.341, P, -281.25
Tower-1.342, P, -281.25
Tower-1.343, P, -281.25
Tower-1.344, P, -281.25
Tower-1.345, P, -281.25
Tower-1.346, P, -281.25
Tower-1.347, P, -235.124
Tower-1.348, P, -172.208
Tower-1.349, P, -105.05
Tower-1.350, P, -35.3066
Tower-1.351, P, 35.3066
Tower-1.352, P, 105.05
Tower-1.353, P, 172.208
Tower-1.354, P, 235.124
Tower-1.355, P, 292.252
Tower-1.356, P, 342.183
Tower-1.357, P, 383.688
Tower-1.358, P, 415.746
Tower-1.359, P, 437.566
Tower-1.360, P, 448.613
Tower-1.361, P, 448.613
Tower-1.362, P, 437.566
Tower-1.363, P, 415.746
Tower-1.364, P, 383.688
Tower-1.365, P, 342.183
Tower-1.366, P, 292.252
Tower-1.367, P, 235.124
Tower-1.368, P, 172.208
Tower-1.369, P, 105.05
Tower-1.370, P, 35.3066
Tower-1.371, P, -35.3066
Tower-1.372, P, -105.05
Tower-1.373, P, -172.208
Tower-1.374, P, -235.124
Tower-1.375, P, -281.25
Tower-1.376, P, -281.25
Tower-1.377, P, -281.25
Tower-1.378, P, -281.25
Tower-1.379, P, -281.25
Tower-1.380, P, -281.25
Tower-1.381, P, -281.25
Tower-1.382, P, -281.25
Tower-1.383, P, -281.25
Tower-1.384, P, -281.25
Tower-1.385, P, -281.25
Tower-1.386, P, -281.25
Tower-1.387, P, -235.124
Tower-1.388, P, -172.208
Tower-1.389, P, -105.05
Tower-1.390, P, -35.3066
Tower-1.391, P, 35.3066
Tower-1.392, P, 105.05
Tower-1.393, P, 172.208
Tower-1.394, P, 235.124
Tower-1.395, P, 292.252
Tower-1.396, P, 342.183
Tower-1.397, P, 383.688
Tower-1.398, P, 415.746
Tower-1.399, P, 437.566
Tower-1.400, P, 448.613
Tower-1.401, P, 448.613
Tower-1.402, P, 437.566
Tower-1.403, P, 415.746
Tower-1.404, P, 383.688
Tower-1.405, P, 342.183
Tower-1.406, P, 292.252
Tower-1.407, P, 235.124
Tower-1.408, P, 172.208
Tower-1.409, P, 105.05
Tower-1.410, P, 35.3066
Tower-1.411, P, -35.3066
Tower-1.412, P, -105.05
Tower-1.413, P, -172.208
Tower-1.414, P, -235.124
Tower-1.415, P, -281.25
Tower-1.416, P, -281.25
Tower-1.417, P, -281.25
Tower-1.418, P, -281.25
Tower-1.419, P, -281.25
Tower-1.420, P, -281.25
Tower-1.421, P, -281.25
Tower-1.422, P, -281.25
Tower-1.423, P, -281.25
Tower-1.424, P, -281.25
Tower-1.425, P, -281.25
Tower-1.426, P, -281.25
Tower-1.427, P, -235.124
Tower-1.428, P, -172.208
Tower-1.429, P, -105.05
Tower-1.430, P, -35.3066
Tower-1.431, P, 35.3066
Tower-1.432, P, 105.05
Tower-1.433, P, 172.208
Tower-1.434, P, 235.124
Tower-1.435, P, 292.252
Tower-1.436, P, 342.183
Tower-1.437, P, 383.688
Tower-1.438, P, 415.746
Tower-1.439, P, 437.566
Tower-1.440, P, 448.613
Tower-1.441, P, 448.613
Tower-1.442, P, 437.566
Tower-1.443, P, 415.746
Tower-1.444, P, 383.688
Tower-1.445, P, 342.183
Tower-1.446, P, 292.252
Tower-1.447, P, 235.124
Tower-1.448, P, 172.208
Tower-1.449, P, 105.05
Tower-1.450, P, 35.3066
Tower-1.451, P, -35.3066
Tower-1.452, P, -105.05
Tower-1.453, P, -172.208
Tower-1.454, P, -235.124
Tower-1.455, P, -281.25
Tower-1.456, P, -281.25
Tower-1.457, P, -281.25
Tower-1.458, P, -281.25
Tower-1.459, P, -281.25
Tower-1.460, P, -281.25
Tower-1.461, P, -281.25
Tower-1.462, P, -281.25
Tower-1.463, P, -281.25
Tower-1.464, P, -281.25
Tower-1.465, P, -281.25
Tower-1.466, P, -281.25
Tower-1.467, P, -235.124
Tower-1.468, P, -172.208
Tower-1.469, P, -105.05
Tower-1.470, P, -35.3066
Tower-1.471, P, 35.3066
Tower-1.472, P, 105.05
Tower-1.473, P, 172.208
Tower-1.474, P, 235.124
Tower-1.475, P, 292.252
Tower-1.476, P, 342.183
Tower-1.477, P, 383.688
Tower-1.478, P, 415.746
Tower-1.479, P, 437.566
Tower-1.480, P, 448.613
Tower-1.481, P, 448.613
Tower-1.482, P, 437.566
Tower-1.483, P, 415.746
Tower-1.484, P, 383.688
Tower-1.485, P, 342.183
Tower-1.486, P, 292.252
Tower-1.487, P, 235.124
Tower-1.488, P, 172.208
Tower-1.489, P, 105.05
Tower-1.490, P, 35.3066
Tower-1.491, P, -35.3066
Tower-1.492, P, -105.05
Tower-1.493, P, -172.208
Tower-1.494, P, -235.124
Tower-1.495, P, -281.25
Tower-1.496, P, -281.25
Tower-1.497, P, -281.25
Tower-1.498, P, -281.25
Tower-1.499, P, -281.25
Tower-1.500, P, -281.25
Tower-1.501, P, -281.25
Tower-1.502, P, -281.25
Tower-1.503, P, -281.25
Tower-1.504, P, -281.25
Tower-1.505, P, -281.25
Tower-1.506, P, -281.25
Tower-1.507, P, -235.124
Tower-1.508, P, -172.208
Tower-1.509, P, -105.05
Tower-1.510, P, -35.3066
Tower-1.511, P, 35.3066
Tower-1.512, P, 105.05
Tower-1.513, P, 172.208
Tower-1.514, P, 235.124
Tower-1.515, P, 292.252
Tower-1.516, P, 342.183
Tower-1.517, P, 383.688
Tower-1.518, P, 415.746
Tower-1.519, P, 437.566
Tower-1.520, P, 448.613
Tower-1.521, P, 448.613
Tower-1.522, P, 437.566
Tower-1.523, P, 415.746
Tower-1.524, P, 383.688
Tower-1.525, P, 342.183
Tower-1.526, P, 292.252
Tower-1.527, P, 235.124
Tower-1.528, P, 172.208
Tower-1.529, P, 105.05
Tower-1.530, P, 35.3066
Tower-1.531, P, -35.3066
Tower-1.532, P, -105.05
Tower-1.533, P, -172.208
Tower-1.534, P, -235.124
Tower-1.535, P, -281.25
Tower-1.536, P, -281.25
Tower-1.537, P, -281.25
Tower-1.538, P, -281.25
Tower-1.539, P, -281.25
Tower-1.540, P, -281.25
Tower-1.541, P, -281.25
Tower-1.542, P, -281.25
Tower-1.543, P, -281.25
Tower-1.544, P, -281.25
Tower-1.545, P, -281.25
Tower-1.546, P, -281.25
Tower-1.547, P, -235.124
Tower-1.548, P, -172.208
Tower-1.549, P, -105.05
Tower-1.550, P, -35.3066
Tower-1.551, P, 35.3066
Tower-1.552, P, 105.05
Tower-1.553, P, 172.208
Tower-1.554, P, 235.124
Tower-1.555, P, 292.252
Tower-1.556, P, 342.183
Tower-1.557, P, 383.688
Tower-1.558, P, 415.746
Tower-1.559, P, 437.566
Tower-1.560, P, 448.613
Tower-1.561, P, 448.613
Tower-1.562, P, 437.566
Tower-1.563, P, 415.746
Tower-1.564, P, 383.688
Tower-1.565, P, 342.183
Tower-1.566, P, 292.252
Tower-1.567, P, 235.124
Tower-1.568, P, 172.208
Tower-1.569, P, 105.05
Tower-1.570, P, 35.3066
Tower-1.571, P, -35.3066
Tower-1.572, P, -105.05
Tower-1.573, P, -172.208
Tower-1.574, P, -235.124
Tower-1.575, P, -281.25
Tower-1.576, P, -281.25
Tower-1.577, P, -281.25
Tower-1.578, P, -281.25
Tower-1.579, P, -281.25
Tower-1.580, P, -281.25
Tower-1.581, P, -281.25
Tower-1.582, P, -281.25
Tower-1.583, P, -281.25
Tower-1.584, P, -281.25
Tower-1.585, P, -281.25
Tower-1.586, P, -281.25
Tower-1.587, P, -235.124
Tower-1.588, P, -172.208
Tower-1.589, P, -105.05
Tower-1.590, P, -35.3066
Tower-1.591, P, 35.3066
Tower-1.592, P, 105.05
Tower-1.593, P, 172.208
Tower-1.594, P, 235.124
Tower-1.595, P, 292.252
Tower-1.596, P, 342.183
Tower-1.597, P, 383.688
Tower-1.598, P, 415.746
Tower-1.599, P, 437.566
Tower-1.600, P, 448.613
Tower-1.601, P, 448.613
Tower-1.602, P, 437.566
Tower-1.603, P, 415.746
Tower-1.604, P, 383.688
Tower-1.605, P, 342.183
Tower-1.606, P, 292.252
Tower-1.607, P, 235.124
Tower-1.608, P, 172.208
Tower-1.609, P, 105.05
Tower-1.610, P, 35.3066
Tower-1.611, P, -35.3066
Tower-1.612, P, -105.05
Tower-1.613, P, -172.208
Tower-1.614, P, -235.124
Tower-1.615, P, -281.25
Tower-1.616, P, -281.25
Tower-1.617, P, -281.25
Tower-1.618, P, -281.25
Tower-1.619, P, -281.25
Tower-1.620, P, -281.25
Tower-1.621, P, -281.25
Tower-1.622, P, -281.25
Tower-1.623, P, -281.25
Tower-1.624, P, -281.25
Tower-1.625, P, -281.25
Tower-1.626, P, -281.25
Tower-1.627, P, -235.124
Tower-1.628, P, -172.208
Tower-1.629, P, -105.05
Tower-1.630, P, -35.3066
Tower-1.631, P, 35.3066
Tower-1.632, P, 105.05
Tower-1.633, P, 172.208
Tower-1.634, P, 235.124
Tower-1.635, P, 292.252
Tower-1.636, P, 342.183
Tower-1.637, P, 383.688
Tower-1.638, P, 415.746
Tower-1.639, P, 437.566
Tower-1.640, P, 448.613
Tower-1.641, P, 448.613
Tower-1.642, P, 437.566
Tower-1.643, P, 415.746
Tower-1.644, P, 383.688
Tower-1.645, P, 342.183
Tower-1.646, P, 292.252
Tower-1.647, P, 235.124
Tower-1.648, P, 172.208
Tower-1.649, P, 105.05
Tower-1.650, P, 35.3066
Tower-1.651, P, -35.3066
Tower-1.652, P, -105.05
Tower-1.653, P, -172.208
Tower-1.654, P, -235.124
Tower-1.655, P, -281.25
Tower-1.656, P, -281.25
Tower-1.657, P, -281.25
Tower-1.658, P, -281.25
Tower-1.659, P, -281.25
Tower-1.660, P, -281.25
Tower-1.661, P, -281.25
Tower-1.662, P, -281.25
Tower-1.663, P, -281.25
Tower-1.664, P, -281.25
Tower-1.665, P, -281.25
Tower-1.666, P, -281.25
Tower-1.667, P, -235.124
Tower-1.668, P, -172.208
Tower-1.669, P, -105.05
Tower-1.670, P, -35.3066
Tower-1.671, P, 35.3066
Tower-1.672, P, 105.05
Tower-1.673, P, 172.208
Tower-1.674, P, 235.124
Tower-1.675, P, 292.252
Tower-1.676, P, 342.183
Tower-1.677, P, 383.688
Tower-1.678, P, 415.746
Tower-1.679, P, 437.566
Tower-1.680, P, 448.613
Tower-1.681, P, 448.613
Tower-1.682, P, 437.566
Tower-1.683, P, 415.746
Tower-1.684, P, 383.688
Tower-1.685, P, 342.183
Tower-1.686, P, 292.252
Tower-1.687, P, 235.124
Tower-1.688, P, 172.208
Tower-1.689, P, 105.05
Tower-1.690, P, 35.3066
Tower-1.691, P, -35.3066
Tower-1.692, P, -105.05
Tower-1.693, P, -172.208
Tower-1.694, P, -235.124
Tower-1.695, P, -281.25
Tower-1.696, P, -281.25
Tower-1.697, P, -281.25
Tower-1.698, P, -281.25
Tower-1.699, P, -281.25
Tower-1.700, P, -281.25
Tower-1.701, P, -281.25
Tower-1.702, P, -281.25
Tower-1.703, P, -281.25
Tower-1.704, P, -281.25
Tower-1.705, P, -281.25
Tower-1.706, P, -281.25
Tower-1.707, P, -235.124
Tower-1.708, P, -172.208
Tower-1.709, P, -105.05
Tower-1.710, P, -35.3066
Tower-1.711, P, 35.3066
Tower-1.712, P, 105.05
Tower-1.713, P, 172.208
Tower-1.714, P, 235.124
Tower-1.715, P, 292.252
Tower-1.716, P, 342.183
Tower-1.717, P, 383.688
Tower-1.718, P, 415.746
Tower-1.719, P, 437.566
Tower-1.720, P, 448.613
Tower-1.721, P, 448.613
Tower-1.722, P, 437.566
Tower-1.723, P, 415.746
Tower-1.724, P, 383.688
Tower-1.725, P, 342.183
Tower-1.726, P, 292.252
Tower-1.727, P, 235.124
Tower-1.728, P, 172.208
Tower-1.729, P, 105.05
Tower-1.730, P, 35.3066
Tower-1.731, P, -35.3066
Tower-1.732, P, -105.05
Tower-1.733, P, -172.208
Tower-1.734, P, -235.124
Tower-1.735, P, -281.25
Tower-1.736, P, -281.25
Tower-1.737, P, -281.25
Tower-1.738, P, -281.25
Tower-1.739, P, -281.25
Tower-1.740, P, -281.25
Tower-1.741, P, -281.25
Tower-1.742, P, -281.25
Tower-1.743, P, -281.25
Tower-1.744, P, -281.25
Tower-1.745, P, -281.25
Tower-1.746, P, -281.25
Tower-1.747, P, -235.124
Tower-1.748, P, -172.208
Tower-1.749, P, -105.05
Tower-1.750, P, -35.3066
Tower-1.751, P, 35.3066
Tower-1.752, P, 105.05
Tower-1.753, P, 172.208
Tower-1.754, P, 235.124
Tower-1.755, P, 292.252
Tower-1.756, P, 342.183
Tower-1.757, P, 383.688
Tower-1.758, P, 415.746
Tower-1.759, P, 437.566
Tower-1.760, P, 448.613
Tower-1.761, P, 448.613
Tower-1.762, P, 437.566
Tower-1.763, P, 415.746
Tower-1.764, P, 383.688
Tower-1.765, P, 342.183
Tower-1.766, P, 292.252
Tower-1.767, P, 235.124
Tower-1.768, P, 172.208
Tower-1.769, P, 105.05
Tower-1.770, P, 35.3066
Tower-1.771, P, -35.3066
Tower-1.772, P, -105.05
Tower-1.773, P, -172.208
Tower-1.774, P, -235.124
Tower-1.775, P, -281.25
Tower-1.776, P, -281.25
Tower-1.777, P, -281.25
Tower-1.778, P, -281.25
Tower-1.779, P, -281.25
Tower-1.780, P, -281.25
Tower-1.781, P, -281.25
Tower-1.782, P, -281.25
Tower-1.783, P, -281.25
Tower-1.784, P, -281.25
Tower-1.785, P, -281.25
Tower-1.786, P, -281.25
Tower-1.787, P, -235.124
Tower-1.788, P, -172.208
Tower-1.789, P, -105.05
Tower-1.790, P, -35.3066
Tower-1.791, P, 35.3066
Tower-1.792, P, 105.05
Tower-1.793, P, 172.208
Tower-1.794, P, 235.124
Tower-1.795, P, 292.252
Tower-1.796, P, 342.183
Tower-1.797, P, 383.688
Tower-1.798, P, 415.746
Tower-1.799, P, 437.566
Tower-1.800, P, 448.613
** 
** OUTPUT REQUESTS
** 
*Restart, write, frequency=0
** 
** FIELD OUTPUT: F-Output-1
** 
*Output, field, variable=PRESELECT
** 
** HISTORY OUTPUT: H-Output-1
** 
*Output, history, variable=PRESELECT
*End Step
** ----------------------------------------------------------------
** 
** STEP: BUCKLING
** 
*Step, name=BUCKLING, nlgeom=NO, perturbation
*Buckle
5, , 10, 30
** 
** BOUNDARY CONDITIONS
** 
** Name: FixBase Type: Displacement/Rotation
*Boundary, op=NEW, load case=1
Tower-1.EBASE, 1, 1
Tower-1.EBASE, 2, 2
Tower-1.EBASE, 3, 3
Tower-1.EBASE, 4, 4
Tower-1.EBASE, 5, 5
Tower-1.EBASE, 6, 6
*Boundary, op=NEW, load case=2
Tower-1.EBASE, 1, 1
Tower-1.EBASE, 2, 2
Tower-1.EBASE, 3, 3
Tower-1.EBASE, 4, 4
Tower-1.EBASE, 5, 5
Tower-1.EBASE, 6, 6
** 
** OUTPUT REQUESTS
** 
*Restart, write, frequency=0
** 
** FIELD OUTPUT: F-Output-2
** 
*Output, field, variable=PRESELECT
*End Step
