*HEADING
** Task 7 generated input for joint_reference
*PREPRINT, ECHO=NO, MODEL=NO, HISTORY=NO, CONTACT=NO
*NODE
1, 39.300000, 0.000000, 0.000000
2, 37.960885, 10.171588, 0.000000
3, 34.034798, 19.650000, 0.000000
4, 27.789297, 27.789297, 0.000000
5, 19.650000, 34.034798, 0.000000
6, 10.171588, 37.960885, 0.000000
7, 0.000000, 39.300000, 0.000000
8, -10.171588, 37.960885, 0.000000
9, -19.650000, 34.034798, 0.000000
10, -27.789297, 27.789297, 0.000000
11, -34.034798, 19.650000, 0.000000
12, -37.960885, 10.171588, 0.000000
13, -39.300000, 0.000000, 0.000000
14, -37.960885, -10.171588, 0.000000
15, -34.034798, -19.650000, 0.000000
16, -27.789297, -27.789297, 0.000000
17, -19.650000, -34.034798, 0.000000
18, -10.171588, -37.960885, 0.000000
19, -0.000000, -39.300000, 0.000000
20, 10.171588, -37.960885, 0.000000
21, 19.650000, -34.034798, 0.000000
22, 27.789297, -27.789297, 0.000000
23, 34.034798, -19.650000, 0.000000
24, 37.960885, -10.171588, 0.000000
25, 36.360623, 0.000000, 1.338165
26, 35.121665, 9.410822, 1.338165
27, 31.489223, 18.180311, 1.338165
28, 25.710843, 25.710843, 1.338165
29, 18.180311, 31.489223, 1.338165
30, 9.410822, 35.121665, 1.338165
31, 0.000000, 36.360623, 1.338165
32, -9.410822, 35.121665, 1.338165
33, -18.180311, 31.489223, 1.338165
34, -25.710843, 25.710843, 1.338165
35, -31.489223, 18.180311, 1.338165
36, -35.121665, 9.410822, 1.338165
37, -36.360623, 0.000000, 1.338165
38, -35.121665, -9.410822, 1.338165
39, -31.489223, -18.180311, 1.338165
40, -25.710843, -25.710843, 1.338165
41, -18.180311, -31.489223, 1.338165
42, -9.410822, -35.121665, 1.338165
43, -0.000000, -36.360623, 1.338165
44, 9.410822, -35.121665, 1.338165
45, 18.180311, -31.489223, 1.338165
46, 25.710843, -25.710843, 1.338165
47, 31.489223, -18.180311, 1.338165
48, 35.121665, -9.410822, 1.338165
49, 33.421245, 0.000000, 2.676331
50, 32.282444, 8.650055, 2.676331
51, 28.943648, 16.710623, 2.676331
52, 23.632389, 23.632389, 2.676331
53, 16.710623, 28.943648, 2.676331
54, 8.650055, 32.282444, 2.676331
55, 0.000000, 33.421245, 2.676331
56, -8.650055, 32.282444, 2.676331
57, -16.710623, 28.943648, 2.676331
58, -23.632389, 23.632389, 2.676331
59, -28.943648, 16.710623, 2.676331
60, -32.282444, 8.650055, 2.676331
61, -33.421245, 0.000000, 2.676331
62, -32.282444, -8.650055, 2.676331
63, -28.943648, -16.710623, 2.676331
64, -23.632389, -23.632389, 2.676331
65, -16.710623, -28.943648, 2.676331
66, -8.650055, -32.282444, 2.676331
67, -0.000000, -33.421245, 2.676331
68, 8.650055, -32.282444, 2.676331
69, 16.710623, -28.943648, 2.676331
70, 23.632389, -23.632389, 2.676331
71, 28.943648, -16.710623, 2.676331
72, 32.282444, -8.650055, 2.676331
73, 31.009962, 0.000000, 4.258081
74, 29.953323, 8.025969, 4.258081
75, 26.855415, 15.504981, 4.258081
76, 21.927355, 21.927355, 4.258081
77, 15.504981, 26.855415, 4.258081
78, 8.025969, 29.953323, 4.258081
79, 0.000000, 31.009962, 4.258081
80, -8.025969, 29.953323, 4.258081
81, -15.504981, 26.855415, 4.258081
82, -21.927355, 21.927355, 4.258081
83, -26.855415, 15.504981, 4.258081
84, -29.953323, 8.025969, 4.258081
85, -31.009962, 0.000000, 4.258081
86, -29.953323, -8.025969, 4.258081
87, -26.855415, -15.504981, 4.258081
88, -21.927355, -21.927355, 4.258081
89, -15.504981, -26.855415, 4.258081
90, -8.025969, -29.953323, 4.258081
91, -0.000000, -31.009962, 4.258081
92, 8.025969, -29.953323, 4.258081
93, 15.504981, -26.855415, 4.258081
94, 21.927355, -21.927355, 4.258081
95, 26.855415, -15.504981, 4.258081
96, 29.953323, -8.025969, 4.258081
97, 28.598679, 0.000000, 5.839831
98, 27.624203, 7.401883, 5.839831
99, 24.767182, 14.299339, 5.839831
100, 20.222320, 20.222320, 5.839831
101, 14.299339, 24.767182, 5.839831
102, 7.401883, 27.624203, 5.839831
103, 0.000000, 28.598679, 5.839831
104, -7.401883, 27.624203, 5.839831
105, -14.299339, 24.767182, 5.839831
106, -20.222320, 20.222320, 5.839831
107, -24.767182, 14.299339, 5.839831
108, -27.624203, 7.401883, 5.839831
109, -28.598679, 0.000000, 5.839831
110, -27.624203, -7.401883, 5.839831
111, -24.767182, -14.299339, 5.839831
112, -20.222320, -20.222320, 5.839831
113, -14.299339, -24.767182, 5.839831
114, -7.401883, -27.624203, 5.839831
115, -0.000000, -28.598679, 5.839831
116, 7.401883, -27.624203, 5.839831
117, 14.299339, -24.767182, 5.839831
118, 20.222320, -20.222320, 5.839831
119, 24.767182, -14.299339, 5.839831
120, 27.624203, -7.401883, 5.839831
121, 26.730860, 0.000000, 7.601560
122, 25.820028, 6.918456, 7.601560
123, 23.149604, 13.365430, 7.601560
124, 18.901573, 18.901573, 7.601560
125, 13.365430, 23.149604, 7.601560
126, 6.918456, 25.820028, 7.601560
127, 0.000000, 26.730860, 7.601560
128, -6.918456, 25.820028, 7.601560
129, -13.365430, 23.149604, 7.601560
130, -18.901573, 18.901573, 7.601560
131, -23.149604, 13.365430, 7.601560
132, -25.820028, 6.918456, 7.601560
133, -26.730860, 0.000000, 7.601560
134, -25.820028, -6.918456, 7.601560
135, -23.149604, -13.365430, 7.601560
136, -18.901573, -18.901573, 7.601560
137, -13.365430, -23.149604, 7.601560
138, -6.918456, -25.820028, 7.601560
139, -0.000000, -26.730860, 7.601560
140, 6.918456, -25.820028, 7.601560
141, 13.365430, -23.149604, 7.601560
142, 18.901573, -18.901573, 7.601560
143, 23.149604, -13.365430, 7.601560
144, 25.820028, -6.918456, 7.601560
145, 24.863042, 0.000000, 9.363290
146, 24.015854, 6.435029, 9.363290
147, 21.532026, 12.431521, 9.363290
148, 17.580826, 17.580826, 9.363290
149, 12.431521, 21.532026, 9.363290
150, 6.435029, 24.015854, 9.363290
151, 0.000000, 24.863042, 9.363290
152, -6.435029, 24.015854, 9.363290
153, -12.431521, 21.532026, 9.363290
154, -17.580826, 17.580826, 9.363290
155, -21.532026, 12.431521, 9.363290
156, -24.015854, 6.435029, 9.363290
157, -24.863042, 0.000000, 9.363290
158, -24.015854, -6.435029, 9.363290
159, -21.532026, -12.431521, 9.363290
160, -17.580826, -17.580826, 9.363290
161, -12.431521, -21.532026, 9.363290
162, -6.435029, -24.015854, 9.363290
163, -0.000000, -24.863042, 9.363290
164, 6.435029, -24.015854, 9.363290
165, 12.431521, -21.532026, 9.363290
166, 17.580826, -17.580826, 9.363290
167, 21.532026, -12.431521, 9.363290
168, 24.015854, -6.435029, 9.363290
169, 23.528204, 0.000000, 11.250774
170, 22.726500, 6.089547, 11.250774
171, 20.376023, 11.764102, 11.250774
172, 16.636953, 16.636953, 11.250774
173, 11.764102, 20.376023, 11.250774
174, 6.089547, 22.726500, 11.250774
175, 0.000000, 23.528204, 11.250774
176, -6.089547, 22.726500, 11.250774
177, -11.764102, 20.376023, 11.250774
178, -16.636953, 16.636953, 11.250774
179, -20.376023, 11.764102, 11.250774
180, -22.726500, 6.089547, 11.250774
181, -23.528204, 0.000000, 11.250774
182, -22.726500, -6.089547, 11.250774
183, -20.376023, -11.764102, 11.250774
184, -16.636953, -16.636953, 11.250774
185, -11.764102, -20.376023, 11.250774
186, -6.089547, -22.726500, 11.250774
187, -0.000000, -23.528204, 11.250774
188, 6.089547, -22.726500, 11.250774
189, 11.764102, -20.376023, 11.250774
190, 16.636953, -16.636953, 11.250774
191, 20.376023, -11.764102, 11.250774
192, 22.726500, -6.089547, 11.250774
193, 22.193367, 0.000000, 13.138259
194, 21.437146, 5.744066, 13.138259
195, 19.220020, 11.096683, 13.138259
196, 15.693080, 15.693080, 13.138259
197, 11.096683, 19.220020, 13.138259
198, 5.744066, 21.437146, 13.138259
199, 0.000000, 22.193367, 13.138259
200, -5.744066, 21.437146, 13.138259
201, -11.096683, 19.220020, 13.138259
202, -15.693080, 15.693080, 13.138259
203, -19.220020, 11.096683, 13.138259
204, -21.437146, 5.744066, 13.138259
205, -22.193367, 0.000000, 13.138259
206, -21.437146, -5.744066, 13.138259
207, -19.220020, -11.096683, 13.138259
208, -15.693080, -15.693080, 13.138259
209, -11.096683, -19.220020, 13.138259
210, -5.744066, -21.437146, 13.138259
211, -0.000000, -22.193367, 13.138259
212, 5.744066, -21.437146, 13.138259
213, 11.096683, -19.220020, 13.138259
214, 15.693080, -15.693080, 13.138259
215, 19.220020, -11.096683, 13.138259
216, 21.437146, -5.744066, 13.138259
217, 21.374425, 0.000000, 15.104832
218, 20.646109, 5.532108, 15.104832
219, 18.510795, 10.687213, 15.104832
220, 15.114001, 15.114001, 15.104832
221, 10.687213, 18.510795, 15.104832
222, 5.532108, 20.646109, 15.104832
223, 0.000000, 21.374425, 15.104832
224, -5.532108, 20.646109, 15.104832
225, -10.687213, 18.510795, 15.104832
226, -15.114001, 15.114001, 15.104832
227, -18.510795, 10.687213, 15.104832
228, -20.646109, 5.532108, 15.104832
229, -21.374425, 0.000000, 15.104832
230, -20.646109, -5.532108, 15.104832
231, -18.510795, -10.687213, 15.104832
232, -15.114001, -15.114001, 15.104832
233, -10.687213, -18.510795, 15.104832
234, -5.532108, -20.646109, 15.104832
235, -0.000000, -21.374425, 15.104832
236, 5.532108, -20.646109, 15.104832
237, 10.687213, -18.510795, 15.104832
238, 15.114001, -15.114001, 15.104832
239, 18.510795, -10.687213, 15.104832
240, 20.646109, -5.532108, 15.104832
241, 20.555483, 0.000000, 17.071405
242, 19.855072, 5.320151, 17.071405
243, 17.801571, 10.277742, 17.071405
244, 14.534922, 14.534922, 17.071405
245, 10.277742, 17.801571, 17.071405
246, 5.320151, 19.855072, 17.071405
247, 0.000000, 20.555483, 17.071405
248, -5.320151, 19.855072, 17.071405
249, -10.277742, 17.801571, 17.071405
250, -14.534922, 14.534922, 17.071405
251, -17.801571, 10.277742, 17.071405
252, -19.855072, 5.320151, 17.071405
253, -20.555483, 0.000000, 17.071405
254, -19.855072, -5.320151, 17.071405
255, -17.801571, -10.277742, 17.071405
256, -14.534922, -14.534922, 17.071405
257, -10.277742, -17.801571, 17.071405
258, -5.320151, -19.855072, 17.071405
259, -0.000000, -20.555483, 17.071405
260, 5.320151, -19.855072, 17.071405
261, 10.277742, -17.801571, 17.071405
262, 14.534922, -14.534922, 17.071405
263, 17.801571, -10.277742, 17.071405
264, 19.855072, -5.320151, 17.071405
265, 20.237307, 0.000000, 19.076425
266, 19.547738, 5.237801, 19.076425
267, 17.526022, 10.118654, 19.076425
268, 14.309937, 14.309937, 19.076425
269, 10.118654, 17.526022, 19.076425
270, 5.237801, 19.547738, 19.076425
271, 0.000000, 20.237307, 19.076425
272, -5.237801, 19.547738, 19.076425
273, -10.118654, 17.526022, 19.076425
274, -14.309937, 14.309937, 19.076425
275, -17.526022, 10.118654, 19.076425
276, -19.547738, 5.237801, 19.076425
277, -20.237307, 0.000000, 19.076425
278, -19.547738, -5.237801, 19.076425
279, -17.526022, -10.118654, 19.076425
280, -14.309937, -14.309937, 19.076425
281, -10.118654, -17.526022, 19.076425
282, -5.237801, -19.547738, 19.076425
283, -0.000000, -20.237307, 19.076425
284, 5.237801, -19.547738, 19.076425
285, 10.118654, -17.526022, 19.076425
286, 14.309937, -14.309937, 19.076425
287, 17.526022, -10.118654, 19.076425
288, 19.547738, -5.237801, 19.076425
289, 19.919131, 0.000000, 21.081446
290, 19.240403, 5.155451, 21.081446
291, 17.250474, 9.959566, 21.081446
292, 14.084953, 14.084953, 21.081446
293, 9.959566, 17.250474, 21.081446
294, 5.155451, 19.240403, 21.081446
295, 0.000000, 19.919131, 21.081446
296, -5.155451, 19.240403, 21.081446
297, -9.959566, 17.250474, 21.081446
298, -14.084953, 14.084953, 21.081446
299, -17.250474, 9.959566, 21.081446
300, -19.240403, 5.155451, 21.081446
301, -19.919131, 0.000000, 21.081446
302, -19.240403, -5.155451, 21.081446
303, -17.250474, -9.959566, 21.081446
304, -14.084953, -14.084953, 21.081446
305, -9.959566, -17.250474, 21.081446
306, -5.155451, -19.240403, 21.081446
307, -0.000000, -19.919131, 21.081446
308, 5.155451, -19.240403, 21.081446
309, 9.959566, -17.250474, 21.081446
310, 14.084953, -14.084953, 21.081446
311, 17.250474, -9.959566, 21.081446
312, 19.240403, -5.155451, 21.081446
313, 20.093939, 0.000000, 23.090495
314, 19.409255, 5.200694, 23.090495
315, 17.401862, 10.046969, 23.090495
316, 14.208561, 14.208561, 23.090495
317, 10.046969, 17.401862, 23.090495
318, 5.200694, 19.409255, 23.090495
319, 0.000000, 20.093939, 23.090495
320, -5.200694, 19.409255, 23.090495
321, -10.046969, 17.401862, 23.090495
322, -14.208561, 14.208561, 23.090495
323, -17.401862, 10.046969, 23.090495
324, -19.409255, 5.200694, 23.090495
325, -20.093939, 0.000000, 23.090495
326, -19.409255, -5.200694, 23.090495
327, -17.401862, -10.046969, 23.090495
328, -14.208561, -14.208561, 23.090495
329, -10.046969, -17.401862, 23.090495
330, -5.200694, -19.409255, 23.090495
331, -0.000000, -20.093939, 23.090495
332, 5.200694, -19.409255, 23.090495
333, 10.046969, -17.401862, 23.090495
334, 14.208561, -14.208561, 23.090495
335, 17.401862, -10.046969, 23.090495
336, 19.409255, -5.200694, 23.090495
337, 20.268747, 0.000000, 25.099544
338, 19.578106, 5.245938, 25.099544
339, 17.553250, 10.134373, 25.099544
340, 14.332168, 14.332168, 25.099544
341, 10.134373, 17.553250, 25.099544
342, 5.245938, 19.578106, 25.099544
343, 0.000000, 20.268747, 25.099544
344, -5.245938, 19.578106, 25.099544
345, -10.134373, 17.553250, 25.099544
346, -14.332168, 14.332168, 25.099544
347, -17.553250, 10.134373, 25.099544
348, -19.578106, 5.245938, 25.099544
349, -20.268747, 0.000000, 25.099544
350, -19.578106, -5.245938, 25.099544
351, -17.553250, -10.134373, 25.099544
352, -14.332168, -14.332168, 25.099544
353, -10.134373, -17.553250, 25.099544
354, -5.245938, -19.578106, 25.099544
355, -0.000000, -20.268747, 25.099544
356, 5.245938, -19.578106, 25.099544
357, 10.134373, -17.553250, 25.099544
358, 14.332168, -14.332168, 25.099544
359, 17.553250, -10.134373, 25.099544
360, 19.578106, -5.245938, 25.099544
361, 20.940584, 0.000000, 27.080231
362, 20.227051, 5.419822, 27.080231
363, 18.135078, 10.470292, 27.080231
364, 14.807229, 14.807229, 27.080231
365, 10.470292, 18.135078, 27.080231
366, 5.419822, 20.227051, 27.080231
367, 0.000000, 20.940584, 27.080231
368, -5.419822, 20.227051, 27.080231
369, -10.470292, 18.135078, 27.080231
370, -14.807229, 14.807229, 27.080231
371, -18.135078, 10.470292, 27.080231
372, -20.227051, 5.419822, 27.080231
373, -20.940584, 0.000000, 27.080231
374, -20.227051, -5.419822, 27.080231
375, -18.135078, -10.470292, 27.080231
376, -14.807229, -14.807229, 27.080231
377, -10.470292, -18.135078, 27.080231
378, -5.419822, -20.227051, 27.080231
379, -0.000000, -20.940584, 27.080231
380, 5.419822, -20.227051, 27.080231
381, 10.470292, -18.135078, 27.080231
382, 14.807229, -14.807229, 27.080231
383, 18.135078, -10.470292, 27.080231
384, 20.227051, -5.419822, 27.080231
385, 21.612421, 0.000000, 29.060917
386, 20.875996, 5.593706, 29.060917
387, 18.716906, 10.806211, 29.060917
388, 15.282290, 15.282290, 29.060917
389, 10.806211, 18.716906, 29.060917
390, 5.593706, 20.875996, 29.060917
391, 0.000000, 21.612421, 29.060917
392, -5.593706, 20.875996, 29.060917
393, -10.806211, 18.716906, 29.060917
394, -15.282290, 15.282290, 29.060917
395, -18.716906, 10.806211, 29.060917
396, -20.875996, 5.593706, 29.060917
397, -21.612421, 0.000000, 29.060917
398, -20.875996, -5.593706, 29.060917
399, -18.716906, -10.806211, 29.060917
400, -15.282290, -15.282290, 29.060917
401, -10.806211, -18.716906, 29.060917
402, -5.593706, -20.875996, 29.060917
403, -0.000000, -21.612421, 29.060917
404, 5.593706, -20.875996, 29.060917
405, 10.806211, -18.716906, 29.060917
406, 15.282290, -15.282290, 29.060917
407, 18.716906, -10.806211, 29.060917
408, 20.875996, -5.593706, 29.060917
409, 22.794918, 0.000000, 30.975154
410, 22.018200, 5.899759, 30.975154
411, 19.740978, 11.397459, 30.975154
412, 16.118441, 16.118441, 30.975154
413, 11.397459, 19.740978, 30.975154
414, 5.899759, 22.018200, 30.975154
415, 0.000000, 22.794918, 30.975154
416, -5.899759, 22.018200, 30.975154
417, -11.397459, 19.740978, 30.975154
418, -16.118441, 16.118441, 30.975154
419, -19.740978, 11.397459, 30.975154
420, -22.018200, 5.899759, 30.975154
421, -22.794918, 0.000000, 30.975154
422, -22.018200, -5.899759, 30.975154
423, -19.740978, -11.397459, 30.975154
424, -16.118441, -16.118441, 30.975154
425, -11.397459, -19.740978, 30.975154
426, -5.899759, -22.018200, 30.975154
427, -0.000000, -22.794918, 30.975154
428, 5.899759, -22.018200, 30.975154
429, 11.397459, -19.740978, 30.975154
430, 16.118441, -16.118441, 30.975154
431, 19.740978, -11.397459, 30.975154
432, 22.018200, -5.899759, 30.975154
433, 23.977415, 0.000000, 32.889391
434, 23.160404, 6.205812, 32.889391
435, 20.765051, 11.988708, 32.889391
436, 16.954593, 16.954593, 32.889391
437, 11.988708, 20.765051, 32.889391
438, 6.205812, 23.160404, 32.889391
439, 0.000000, 23.977415, 32.889391
440, -6.205812, 23.160404, 32.889391
441, -11.988708, 20.765051, 32.889391
442, -16.954593, 16.954593, 32.889391
443, -20.765051, 11.988708, 32.889391
444, -23.160404, 6.205812, 32.889391
445, -23.977415, 0.000000, 32.889391
446, -23.160404, -6.205812, 32.889391
447, -20.765051, -11.988708, 32.889391
448, -16.954593, -16.954593, 32.889391
449, -11.988708, -20.765051, 32.889391
450, -6.205812, -23.160404, 32.889391
451, -0.000000, -23.977415, 32.889391
452, 6.205812, -23.160404, 32.889391
453, 11.988708, -20.765051, 32.889391
454, 16.954593, -16.954593, 32.889391
455, 20.765051, -11.988708, 32.889391
456, 23.160404, -6.205812, 32.889391
457, 25.688708, 0.000000, 34.693148
458, 24.813386, 6.648727, 34.693148
459, 22.247073, 12.844354, 34.693148
460, 18.164659, 18.164659, 34.693148
461, 12.844354, 22.247073, 34.693148
462, 6.648727, 24.813386, 34.693148
463, 0.000000, 25.688708, 34.693148
464, -6.648727, 24.813386, 34.693148
465, -12.844354, 22.247073, 34.693148
466, -18.164659, 18.164659, 34.693148
467, -22.247073, 12.844354, 34.693148
468, -24.813386, 6.648727, 34.693148
469, -25.688708, 0.000000, 34.693148
470, -24.813386, -6.648727, 34.693148
471, -22.247073, -12.844354, 34.693148
472, -18.164659, -18.164659, 34.693148
473, -12.844354, -22.247073, 34.693148
474, -6.648727, -24.813386, 34.693148
475, -0.000000, -25.688708, 34.693148
476, 6.648727, -24.813386, 34.693148
477, 12.844354, -22.247073, 34.693148
478, 18.164659, -18.164659, 34.693148
479, 22.247073, -12.844354, 34.693148
480, 24.813386, -6.648727, 34.693148
481, 27.400000, 0.000000, 36.496904
482, 26.466368, 7.091642, 36.496904
483, 23.729096, 13.700000, 36.496904
484, 19.374726, 19.374726, 36.496904
485, 13.700000, 23.729096, 36.496904
486, 7.091642, 26.466368, 36.496904
487, 0.000000, 27.400000, 36.496904
488, -7.091642, 26.466368, 36.496904
489, -13.700000, 23.729096, 36.496904
490, -19.374726, 19.374726, 36.496904
491, -23.729096, 13.700000, 36.496904
492, -26.466368, 7.091642, 36.496904
493, -27.400000, 0.000000, 36.496904
494, -26.466368, -7.091642, 36.496904
495, -23.729096, -13.700000, 36.496904
496, -19.374726, -19.374726, 36.496904
497, -13.700000, -23.729096, 36.496904
498, -7.091642, -26.466368, 36.496904
499, -0.000000, -27.400000, 36.496904
500, 7.091642, -26.466368, 36.496904
501, 13.700000, -23.729096, 36.496904
502, 19.374726, -19.374726, 36.496904
503, 23.729096, -13.700000, 36.496904
504, 26.466368, -7.091642, 36.496904
*ELEMENT, TYPE=S4R, ELSET=EALL
1, 1, 2, 26, 25
2, 2, 3, 27, 26
3, 3, 4, 28, 27
4, 4, 5, 29, 28
5, 5, 6, 30, 29
6, 6, 7, 31, 30
7, 7, 8, 32, 31
8, 8, 9, 33, 32
9, 9, 10, 34, 33
10, 10, 11, 35, 34
11, 11, 12, 36, 35
12, 12, 13, 37, 36
13, 13, 14, 38, 37
14, 14, 15, 39, 38
15, 15, 16, 40, 39
16, 16, 17, 41, 40
17, 17, 18, 42, 41
18, 18, 19, 43, 42
19, 19, 20, 44, 43
20, 20, 21, 45, 44
21, 21, 22, 46, 45
22, 22, 23, 47, 46
23, 23, 24, 48, 47
24, 24, 1, 25, 48
25, 25, 26, 50, 49
26, 26, 27, 51, 50
27, 27, 28, 52, 51
28, 28, 29, 53, 52
29, 29, 30, 54, 53
30, 30, 31, 55, 54
31, 31, 32, 56, 55
32, 32, 33, 57, 56
33, 33, 34, 58, 57
34, 34, 35, 59, 58
35, 35, 36, 60, 59
36, 36, 37, 61, 60
37, 37, 38, 62, 61
38, 38, 39, 63, 62
39, 39, 40, 64, 63
40, 40, 41, 65, 64
41, 41, 42, 66, 65
42, 42, 43, 67, 66
43, 43, 44, 68, 67
44, 44, 45, 69, 68
45, 45, 46, 70, 69
46, 46, 47, 71, 70
47, 47, 48, 72, 71
48, 48, 25, 49, 72
49, 49, 50, 74, 73
50, 50, 51, 75, 74
51, 51, 52, 76, 75
52, 52, 53, 77, 76
53, 53, 54, 78, 77
54, 54, 55, 79, 78
55, 55, 56, 80, 79
56, 56, 57, 81, 80
57, 57, 58, 82, 81
58, 58, 59, 83, 82
59, 59, 60, 84, 83
60, 60, 61, 85, 84
61, 61, 62, 86, 85
62, 62, 63, 87, 86
63, 63, 64, 88, 87
64, 64, 65, 89, 88
65, 65, 66, 90, 89
66, 66, 67, 91, 90
67, 67, 68, 92, 91
68, 68, 69, 93, 92
69, 69, 70, 94, 93
70, 70, 71, 95, 94
71, 71, 72, 96, 95
72, 72, 49, 73, 96
73, 73, 74, 98, 97
74, 74, 75, 99, 98
75, 75, 76, 100, 99
76, 76, 77, 101, 100
77, 77, 78, 102, 101
78, 78, 79, 103, 102
79, 79, 80, 104, 103
80, 80, 81, 105, 104
81, 81, 82, 106, 105
82, 82, 83, 107, 106
83, 83, 84, 108, 107
84, 84, 85, 109, 108
85, 85, 86, 110, 109
86, 86, 87, 111, 110
87, 87, 88, 112, 111
88, 88, 89, 113, 112
89, 89, 90, 114, 113
90, 90, 91, 115, 114
91, 91, 92, 116, 115
92, 92, 93, 117, 116
93, 93, 94, 118, 117
94, 94, 95, 119, 118
95, 95, 96, 120, 119
96, 96, 73, 97, 120
97, 97, 98, 122, 121
98, 98, 99, 123, 122
99, 99, 100, 124, 123
100, 100, 101, 125, 124
101, 101, 102, 126, 125
102, 102, 103, 127, 126
103, 103, 104, 128, 127
104, 104, 105, 129, 128
105, 105, 106, 130, 129
106, 106, 107, 131, 130
107, 107, 108, 132, 131
108, 108, 109, 133, 132
109, 109, 110, 134, 133
110, 110, 111, 135, 134
111, 111, 112, 136, 135
112, 112, 113, 137, 136
113, 113, 114, 138, 137
114, 114, 115, 139, 138
115, 115, 116, 140, 139
116, 116, 117, 141, 140
117, 117, 118, 142, 141
118, 118, 119, 143, 142
119, 119, 120, 144, 143
120, 120, 97, 121, 144
121, 121, 122, 146, 145
122, 122, 123, 147, 146
123, 123, 124, 148, 147
124, 124, 125, 149, 148
125, 125, 126, 150, 149
126, 126, 127, 151, 150
127, 127, 128, 152, 151
128, 128, 129, 153, 152
129, 129, 130, 154, 153
130, 130, 131, 155, 154
131, 131, 132, 156, 155
132, 132, 133, 157, 156
133, 133, 134, 158, 157
134, 134, 135, 159, 158
135, 135, 136, 160, 159
136, 136, 137, 161, 160
137, 137, 138, 162, 161
138, 138, 139, 163, 162
139, 139, 140, 164, 163
140, 140, 141, 165, 164
141, 141, 142, 166, 165
142, 142, 143, 167, 166
143, 143, 144, 168, 167
144, 144, 121, 145, 168
145, 145, 146, 170, 169
146, 146, 147, 171, 170
147, 147, 148, 172, 171
148, 148, 149, 173, 172
149, 149, 150, 174, 173
150, 150, 151, 175, 174
151, 151, 152, 176, 175
152, 152, 153, 177, 176
153, 153, 154, 178, 177
154, 154, 155, 179, 178
155, 155, 156, 180, 179
156, 156, 157, 181, 180
157, 157, 158, 182, 181
158, 158, 159, 183, 182
159, 159, 160, 184, 183
160, 160, 161, 185, 184
161, 161, 162, 186, 185
162, 162, 163, 187, 186
163, 163, 164, 188, 187
164, 164, 165, 189, 188
165, 165, 166, 190, 189
166, 166, 167, 191, 190
167, 167, 168, 192, 191
168, 168, 145, 169, 192
169, 169, 170, 194, 193
170, 170, 171, 195, 194
171, 171, 172, 196, 195
172, 172, 173, 197, 196
173, 173, 174, 198, 197
174, 174, 175, 199, 198
175, 175, 176, 200, 199
176, 176, 177, 201, 200
177, 177, 178, 202, 201
178, 178, 179, 203, 202
179, 179, 180, 204, 203
180, 180, 181, 205, 204
181, 181, 182, 206, 205
182, 182, 183, 207, 206
183, 183, 184, 208, 207
184, 184, 185, 209, 208
185, 185, 186, 210, 209
186, 186, 187, 211, 210
187, 187, 188, 212, 211
188, 188, 189, 213, 212
189, 189, 190, 214, 213
190, 190, 191, 215, 214
191, 191, 192, 216, 215
192, 192, 169, 193, 216
193, 193, 194, 218, 217
194, 194, 195, 219, 218
195, 195, 196, 220, 219
196, 196, 197, 221, 220
197, 197, 198, 222, 221
198, 198, 199, 223, 222
199, 199, 200, 224, 223
200, 200, 201, 225, 224
201, 201, 202, 226, 225
202, 202, 203, 227, 226
203, 203, 204, 228, 227
204, 204, 205, 229, 228
205, 205, 206, 230, 229
206, 206, 207, 231, 230
207, 207, 208, 232, 231
208, 208, 209, 233, 232
209, 209, 210, 234, 233
210, 210, 211, 235, 234
211, 211, 212, 236, 235
212, 212, 213, 237, 236
213, 213, 214, 238, 237
214, 214, 215, 239, 238
215, 215, 216, 240, 239
216, 216, 193, 217, 240
217, 217, 218, 242, 241
218, 218, 219, 243, 242
219, 219, 220, 244, 243
220, 220, 221, 245, 244
221, 221, 222, 246, 245
222, 222, 223, 247, 246
223, 223, 224, 248, 247
224, 224, 225, 249, 248
225, 225, 226, 250, 249
226, 226, 227, 251, 250
227, 227, 228, 252, 251
228, 228, 229, 253, 252
229, 229, 230, 254, 253
230, 230, 231, 255, 254
231, 231, 232, 256, 255
232, 232, 233, 257, 256
233, 233, 234, 258, 257
234, 234, 235, 259, 258
235, 235, 236, 260, 259
236, 236, 237, 261, 260
237, 237, 238, 262, 261
238, 238, 239, 263, 262
239, 239, 240, 264, 263
240, 240, 217, 241, 264
241, 241, 242, 266, 265
242, 242, 243, 267, 266
243, 243, 244, 268, 267
244, 244, 245, 269, 268
245, 245, 246, 270, 269
246, 246, 247, 271, 270
247, 247, 248, 272, 271
248, 248, 249, 273, 272
249, 249, 250, 274, 273
250, 250, 251, 275, 274
251, 251, 252, 276, 275
252, 252, 253, 277, 276
253, 253, 254, 278, 277
254, 254, 255, 279, 278
255, 255, 256, 280, 279
256, 256, 257, 281, 280
257, 257, 258, 282, 281
258, 258, 259, 283, 282
259, 259, 260, 284, 283
260, 260, 261, 285, 284
261, 261, 262, 286, 285
262, 262, 263, 287, 286
263, 263, 264, 288, 287
264, 264, 241, 265, 288
265, 265, 266, 290, 289
266, 266, 267, 291, 290
267, 267, 268, 292, 291
268, 268, 269, 293, 292
269, 269, 270, 294, 293
270, 270, 271, 295, 294
271, 271, 272, 296, 295
272, 272, 273, 297, 296
273, 273, 274, 298, 297
274, 274, 275, 299, 298
275, 275, 276, 300, 299
276, 276, 277, 301, 300
277, 277, 278, 302, 301
278, 278, 279, 303, 302
279, 279, 280, 304, 303
280, 280, 281, 305, 304
281, 281, 282, 306, 305
282, 282, 283, 307, 306
283, 283, 284, 308, 307
284, 284, 285, 309, 308
285, 285, 286, 310, 309
286, 286, 287, 311, 310
287, 287, 288, 312, 311
288, 288, 265, 289, 312
289, 289, 290, 314, 313
290, 290, 291, 315, 314
291, 291, 292, 316, 315
292, 292, 293, 317, 316
293, 293, 294, 318, 317
294, 294, 295, 319, 318
295, 295, 296, 320, 319
296, 296, 297, 321, 320
297, 297, 298, 322, 321
298, 298, 299, 323, 322
299, 299, 300, 324, 323
300, 300, 301, 325, 324
301, 301, 302, 326, 325
302, 302, 303, 327, 326
303, 303, 304, 328, 327
304, 304, 305, 329, 328
305, 305, 306, 330, 329
306, 306, 307, 331, 330
307, 307, 308, 332, 331
308, 308, 309, 333, 332
309, 309, 310, 334, 333
310, 310, 311, 335, 334
311, 311, 312, 336, 335
312, 312, 289, 313, 336
313, 313, 314, 338, 337
314, 314, 315, 339, 338
315, 315, 316, 340, 339
316, 316, 317, 341, 340
317, 317, 318, 342, 341
318, 318, 319, 343, 342
319, 319, 320, 344, 343
320, 320, 321, 345, 344
321, 321, 322, 346, 345
322, 322, 323, 347, 346
323, 323, 324, 348, 347
324, 324, 325, 349, 348
325, 325, 326, 350, 349
326, 326, 327, 351, 350
327, 327, 328, 352, 351
328, 328, 329, 353, 352
329, 329, 330, 354, 353
330, 330, 331, 355, 354
331, 331, 332, 356, 355
332, 332, 333, 357, 356
333, 333, 334, 358, 357
334, 334, 335, 359, 358
335, 335, 336, 360, 359
336, 336, 313, 337, 360
337, 337, 338, 362, 361
338, 338, 339, 363, 362
339, 339, 340, 364, 363
340, 340, 341, 365, 364
341, 341, 342, 366, 365
342, 342, 343, 367, 366
343, 343, 344, 368, 367
344, 344, 345, 369, 368
345, 345, 346, 370, 369
346, 346, 347, 371, 370
347, 347, 348, 372, 371
348, 348, 349, 373, 372
349, 349, 350, 374, 373
350, 350, 351, 375, 374
351, 351, 352, 376, 375
352, 352, 353, 377, 376
353, 353, 354, 378, 377
354, 354, 355, 379, 378
355, 355, 356, 380, 379
356, 356, 357, 381, 380
357, 357, 358, 382, 381
358, 358, 359, 383, 382
359, 359, 360, 384, 383
360, 360, 337, 361, 384
361, 361, 362, 386, 385
362, 362, 363, 387, 386
363, 363, 364, 388, 387
364, 364, 365, 389, 388
365, 365, 366, 390, 389
366, 366, 367, 391, 390
367, 367, 368, 392, 391
368, 368, 369, 393, 392
369, 369, 370, 394, 393
370, 370, 371, 395, 394
371, 371, 372, 396, 395
372, 372, 373, 397, 396
373, 373, 374, 398, 397
374, 374, 375, 399, 398
375, 375, 376, 400, 399
376, 376, 377, 401, 400
377, 377, 378, 402, 401
378, 378, 379, 403, 402
379, 379, 380, 404, 403
380, 380, 381, 405, 404
381, 381, 382, 406, 405
382, 382, 383, 407, 406
383, 383, 384, 408, 407
384, 384, 361, 385, 408
385, 385, 386, 410, 409
386, 386, 387, 411, 410
387, 387, 388, 412, 411
388, 388, 389, 413, 412
389, 389, 390, 414, 413
390, 390, 391, 415, 414
391, 391, 392, 416, 415
392, 392, 393, 417, 416
393, 393, 394, 418, 417
394, 394, 395, 419, 418
395, 395, 396, 420, 419
396, 396, 397, 421, 420
397, 397, 398, 422, 421
398, 398, 399, 423, 422
399, 399, 400, 424, 423
400, 400, 401, 425, 424
401, 401, 402, 426, 425
402, 402, 403, 427, 426
403, 403, 404, 428, 427
404, 404, 405, 429, 428
405, 405, 406, 430, 429
406, 406, 407, 431, 430
407, 407, 408, 432, 431
408, 408, 385, 409, 432
409, 409, 410, 434, 433
410, 410, 411, 435, 434
411, 411, 412, 436, 435
412, 412, 413, 437, 436
413, 413, 414, 438, 437
414, 414, 415, 439, 438
415, 415, 416, 440, 439
416, 416, 417, 441, 440
417, 417, 418, 442, 441
418, 418, 419, 443, 442
419, 419, 420, 444, 443
420, 420, 421, 445, 444
421, 421, 422, 446, 445
422, 422, 423, 447, 446
423, 423, 424, 448, 447
424, 424, 425, 449, 448
425, 425, 426, 450, 449
426, 426, 427, 451, 450
427, 427, 428, 452, 451
428, 428, 429, 453, 452
429, 429, 430, 454, 453
430, 430, 431, 455, 454
431, 431, 432, 456, 455
432, 432, 409, 433, 456
433, 433, 434, 458, 457
434, 434, 435, 459, 458
435, 435, 436, 460, 459
436, 436, 437, 461, 460
437, 437, 438, 462, 461
438, 438, 439, 463, 462
439, 439, 440, 464, 463
440, 440, 441, 465, 464
441, 441, 442, 466, 465
442, 442, 443, 467, 466
443, 443, 444, 468, 467
444, 444, 445, 469, 468
445, 445, 446, 470, 469
446, 446, 447, 471, 470
447, 447, 448, 472, 471
448, 448, 449, 473, 472
449, 449, 450, 474, 473
450, 450, 451, 475, 474
451, 451, 452, 476, 475
452, 452, 453, 477, 476
453, 453, 454, 478, 477
454, 454, 455, 479, 478
455, 455, 456, 480, 479
456, 456, 433, 457, 480
457, 457, 458, 482, 481
458, 458, 459, 483, 482
459, 459, 460, 484, 483
460, 460, 461, 485, 484
461, 461, 462, 486, 485
462, 462, 463, 487, 486
463, 463, 464, 488, 487
464, 464, 465, 489, 488
465, 465, 466, 490, 489
466, 466, 467, 491, 490
467, 467, 468, 492, 491
468, 468, 469, 493, 492
469, 469, 470, 494, 493
470, 470, 471, 495, 494
471, 471, 472, 496, 495
472, 472, 473, 497, 496
473, 473, 474, 498, 497
474, 474, 475, 499, 498
475, 475, 476, 500, 499
476, 476, 477, 501, 500
477, 477, 478, 502, 501
478, 478, 479, 503, 502
479, 479, 480, 504, 503
480, 480, 457, 481, 504
*NSET, NSET=NALL
1, 2, 3, 4, 5, 6, 7, 8, 9, 10, 11, 12, 13, 14, 15, 16
17, 18, 19, 20, 21, 22, 23, 24, 25, 26, 27, 28, 29, 30, 31, 32
33, 34, 35, 36, 37, 38, 39, 40, 41, 42, 43, 44, 45, 46, 47, 48
49, 50, 51, 52, 53, 54, 55, 56, 57, 58, 59, 60, 61, 62, 63, 64
65, 66, 67, 68, 69, 70, 71, 72, 73, 74, 75, 76, 77, 78, 79, 80
81, 82, 83, 84, 85, 86, 87, 88, 89, 90, 91, 92, 93, 94, 95, 96
97, 98, 99, 100, 101, 102, 103, 104, 105, 106, 107, 108, 109, 110, 111, 112
113, 114, 115, 116, 117, 118, 119, 120, 121, 122, 123, 124, 125, 126, 127, 128
129, 130, 131, 132, 133, 134, 135, 136, 137, 138, 139, 140, 141, 142, 143, 144
145, 146, 147, 148, 149, 150, 151, 152, 153, 154, 155, 156, 157, 158, 159, 160
161, 162, 163, 164, 165, 166, 167, 168, 169, 170, 171, 172, 173, 174, 175, 176
177, 178, 179, 180, 181, 182, 183, 184, 185, 186, 187, 188, 189, 190, 191, 192
193, 194, 195, 196, 197, 198, 199, 200, 201, 202, 203, 204, 205, 206, 207, 208
209, 210, 211, 212, 213, 214, 215, 216, 217, 218, 219, 220, 221, 222, 223, 224
225, 226, 227, 228, 229, 230, 231, 232, 233, 234, 235, 236, 237, 238, 239, 240
241, 242, 243, 244, 245, 246, 247, 248, 249, 250, 251, 252, 253, 254, 255, 256
257, 258, 259, 260, 261, 262, 263, 264, 265, 266, 267, 268, 269, 270, 271, 272
273, 274, 275, 276, 277, 278, 279, 280, 281, 282, 283, 284, 285, 286, 287, 288
289, 290, 291, 292, 293, 294, 295, 296, 297, 298, 299, 300, 301, 302, 303, 304
305, 306, 307, 308, 309, 310, 311, 312, 313, 314, 315, 316, 317, 318, 319, 320
321, 322, 323, 324, 325, 326, 327, 328, 329, 330, 331, 332, 333, 334, 335, 336
337, 338, 339, 340, 341, 342, 343, 344, 345, 346, 347, 348, 349, 350, 351, 352
353, 354, 355, 356, 357, 358, 359, 360, 361, 362, 363, 364, 365, 366, 367, 368
369, 370, 371, 372, 373, 374, 375, 376, 377, 378, 379, 380, 381, 382, 383, 384
385, 386, 387, 388, 389, 390, 391, 392, 393, 394, 395, 396, 397, 398, 399, 400
401, 402, 403, 404, 405, 406, 407, 408, 409, 410, 411, 412, 413, 414, 415, 416
417, 418, 419, 420, 421, 422, 423, 424, 425, 426, 427, 428, 429, 430, 431, 432
433, 434, 435, 436, 437, 438, 439, 440, 441, 442, 443, 444, 445, 446, 447, 448
449, 450, 451, 452, 453, 454, 455, 456, 457, 458, 459, 460, 461, 462, 463, 464
465, 466, 467, 468, 469, 470, 471, 472, 473, 474, 475, 476, 477, 478, 479, 480
481, 482, 483, 484, 485, 486, 487, 488, 489, 490, 491, 492, 493, 494, 495, 496
497, 498, 499, 500, 501, 502, 503, 504
*NSET, NSET=NBASE
1, 2, 3, 4, 5, 6, 7, 8, 9, 10, 11, 12, 13, 14, 15, 16
17, 18, 19, 20, 21, 22, 23, 24
*NSET, NSET=NTOP
481, 482, 483, 484, 485, 486, 487, 488, 489, 490, 491, 492, 493, 494, 495, 496
497, 498, 499, 500, 501, 502, 503, 504
*ELSET, ELSET=WIND_SEC_01
1, 25, 49, 73, 97, 121, 145, 169, 193, 217, 241, 265, 289, 313, 337, 361
385, 409, 433, 457
*ELSET, ELSET=WIND_SEC_02
2, 26, 50, 74, 98, 122, 146, 170, 194, 218, 242, 266, 290, 314, 338, 362
386, 410, 434, 458
*ELSET, ELSET=WIND_SEC_03
3, 27, 51, 75, 99, 123, 147, 171, 195, 219, 243, 267, 291, 315, 339, 363
387, 411, 435, 459
*ELSET, ELSET=WIND_SEC_04
4, 28, 52, 76, 100, 124, 148, 172, 196, 220, 244, 268, 292, 316, 340, 364
388, 412, 436, 460
*ELSET, ELSET=WIND_SEC_05
5, 29, 53, 77, 101, 125, 149, 173, 197, 221, 245, 269, 293, 317, 341, 365
389, 413, 437, 461
*ELSET, ELSET=WIND_SEC_06
6, 30, 54, 78, 102, 126, 150, 174, 198, 222, 246, 270, 294, 318, 342, 366
390, 414, 438, 462
*ELSET, ELSET=WIND_SEC_07
7, 31, 55, 79, 103, 127, 151, 175, 199, 223, 247, 271, 295, 319, 343, 367
391, 415, 439, 463
*ELSET, ELSET=WIND_SEC_08
8, 32, 56, 80, 104, 128, 152, 176, 200, 224, 248, 272, 296, 320, 344, 368
392, 416, 440, 464
*ELSET, ELSET=WIND_SEC_09
9, 33, 57, 81, 105, 129, 153, 177, 201, 225, 249, 273, 297, 321, 345, 369
393, 417, 441, 465
*ELSET, ELSET=WIND_SEC_10
10, 34, 58, 82, 106, 130, 154, 178, 202, 226, 250, 274, 298, 322, 346, 370
394, 418, 442, 466
*ELSET, ELSET=WIND_SEC_11
11, 35, 59, 83, 107, 131, 155, 179, 203, 227, 251, 275, 299, 323, 347, 371
395, 419, 443, 467
*ELSET, ELSET=WIND_SEC_12
12, 36, 60, 84, 108, 132, 156, 180, 204, 228, 252, 276, 300, 324, 348, 372
396, 420, 444, 468
*ELSET, ELSET=WIND_SEC_13
13, 37, 61, 85, 109, 133, 157, 181, 205, 229, 253, 277, 301, 325, 349, 373
397, 421, 445, 469
*ELSET, ELSET=WIND_SEC_14
14, 38, 62, 86, 110, 134, 158, 182, 206, 230, 254, 278, 302, 326, 350, 374
398, 422, 446, 470
*ELSET, ELSET=WIND_SEC_15
15, 39, 63, 87, 111, 135, 159, 183, 207, 231, 255, 279, 303, 327, 351, 375
399, 423, 447, 471
*ELSET, ELSET=WIND_SEC_16
16, 40, 64, 88, 112, 136, 160, 184, 208, 232, 256, 280, 304, 328, 352, 376
400, 424, 448, 472
*ELSET, ELSET=WIND_SEC_17
17, 41, 65, 89, 113, 137, 161, 185, 209, 233, 257, 281, 305, 329, 353, 377
401, 425, 449, 473
*ELSET, ELSET=WIND_SEC_18
18, 42, 66, 90, 114, 138, 162, 186, 210, 234, 258, 282, 306, 330, 354, 378
402, 426, 450, 474
*ELSET, ELSET=WIND_SEC_19
19, 43, 67, 91, 115, 139, 163, 187, 211, 235, 259, 283, 307, 331, 355, 379
403, 427, 451, 475
*ELSET, ELSET=WIND_SEC_20
20, 44, 68, 92, 116, 140, 164, 188, 212, 236, 260, 284, 308, 332, 356, 380
404, 428, 452, 476
*ELSET, ELSET=WIND_SEC_21
21, 45, 69, 93, 117, 141, 165, 189, 213, 237, 261, 285, 309, 333, 357, 381
405, 429, 453, 477
*ELSET, ELSET=WIND_SEC_22
22, 46, 70, 94, 118, 142, 166, 190, 214, 238, 262, 286, 310, 334, 358, 382
406, 430, 454, 478
*ELSET, ELSET=WIND_SEC_23
23, 47, 71, 95, 119, 143, 167, 191, 215, 239, 263, 287, 311, 335, 359, 383
407, 431, 455, 479
*ELSET, ELSET=WIND_SEC_24
24, 48, 72, 96, 120, 144, 168, 192, 216, 240, 264, 288, 312, 336, 360, 384
408, 432, 456, 480
*MATERIAL, NAME=EquivalentReinforcedConcrete_C30_37
*ELASTIC
33000000000.000000, 0.200000
*DENSITY
2500.000000
*SHELL SECTION, ELSET=EALL, MATERIAL=EquivalentReinforcedConcrete_C30_37
0.200000
*BOUNDARY
NBASE, 1, 6
*STEP, NAME=STATIC_WIND, NLGEOM=NO
*STATIC
0.1, 1.0, 1e-05, 1.0
*DLOAD
EALL, GRAV, 9.810000, 0.000000, 0.000000, -1.000000
WIND_SEC_01, P, -446.150188
WIND_SEC_02, P, -415.745790
WIND_SEC_03, P, -357.009003
WIND_SEC_04, P, -273.942643
WIND_SEC_05, P, -172.207545
WIND_SEC_06, P, -58.736786
WIND_SEC_07, P, 58.736786
WIND_SEC_08, P, 172.207545
WIND_SEC_09, P, 273.942643
WIND_SEC_10, P, 281.250000
WIND_SEC_11, P, 281.250000
WIND_SEC_12, P, 281.250000
WIND_SEC_13, P, 281.250000
WIND_SEC_14, P, 281.250000
WIND_SEC_15, P, 281.250000
WIND_SEC_16, P, 273.942643
WIND_SEC_17, P, 172.207545
WIND_SEC_18, P, 58.736786
WIND_SEC_19, P, -58.736786
WIND_SEC_20, P, -172.207545
WIND_SEC_21, P, -273.942643
WIND_SEC_22, P, -357.009003
WIND_SEC_23, P, -415.745790
WIND_SEC_24, P, -446.150188
*OUTPUT, FIELD, FREQUENCY=1
*NODE OUTPUT, NSET=NALL
U
*NODE OUTPUT, NSET=NBASE
RF
*ELEMENT OUTPUT, ELSET=EALL
S, E
*END STEP
*STEP, NAME=BUCKLING, PERTURBATION
*BUCKLE, EIGENSOLVER=LANCZOS
5,
*DLOAD
EALL, GRAV, 9.810000, 0.000000, 0.000000, -1.000000
WIND_SEC_01, P, -446.150188
WIND_SEC_02, P, -415.745790
WIND_SEC_03, P, -357.009003
WIND_SEC_04, P, -273.942643
WIND_SEC_05, P, -172.207545
WIND_SEC_06, P, -58.736786
WIND_SEC_07, P, 58.736786
WIND_SEC_08, P, 172.207545
WIND_SEC_09, P, 273.942643
WIND_SEC_10, P, 281.250000
WIND_SEC_11, P, 281.250000
WIND_SEC_12, P, 281.250000
WIND_SEC_13, P, 281.250000
WIND_SEC_14, P, 281.250000
WIND_SEC_15, P, 281.250000
WIND_SEC_16, P, 273.942643
WIND_SEC_17, P, 172.207545
WIND_SEC_18, P, 58.736786
WIND_SEC_19, P, -58.736786
WIND_SEC_20, P, -172.207545
WIND_SEC_21, P, -273.942643
WIND_SEC_22, P, -357.009003
WIND_SEC_23, P, -415.745790
WIND_SEC_24, P, -446.150188
*OUTPUT, FIELD, FREQUENCY=1
*NODE OUTPUT, NSET=NALL
U
*END STEP
