*HEADING
** Task 7 generated input for S4 / BFGS (engineering_feasible)
*PREPRINT, ECHO=NO, MODEL=NO, HISTORY=NO, CONTACT=NO
*NODE
1, 39.300000, 0.000000, 0.000000
2, 38.816152, 0.000000, 6.147874
3, 37.376521, 0.000000, 12.144368
4, 35.016556, 0.000000, 17.841827
5, 31.794368, 0.000000, 23.099960
6, 27.789297, 0.000000, 27.789297
7, 23.099960, 0.000000, 31.794368
8, 17.841827, 0.000000, 35.016556
9, 12.144368, 0.000000, 37.376521
10, 6.147874, 0.000000, 38.816152
11, 0.000000, 0.000000, 39.300000
12, -6.147874, 0.000000, 38.816152
13, -12.144368, 0.000000, 37.376521
14, -17.841827, 0.000000, 35.016556
15, -23.099960, 0.000000, 31.794368
16, -27.789297, 0.000000, 27.789297
17, -31.794368, 0.000000, 23.099960
18, -35.016556, 0.000000, 17.841827
19, -37.376521, 0.000000, 12.144368
20, -38.816152, 0.000000, 6.147874
21, -39.300000, 0.000000, 0.000000
22, -38.816152, 0.000000, -6.147874
23, -37.376521, 0.000000, -12.144368
24, -35.016556, 0.000000, -17.841827
25, -31.794368, 0.000000, -23.099960
26, -27.789297, 0.000000, -27.789297
27, -23.099960, 0.000000, -31.794368
28, -17.841827, 0.000000, -35.016556
29, -12.144368, 0.000000, -37.376521
30, -6.147874, 0.000000, -38.816152
31, -0.000000, 0.000000, -39.300000
32, 6.147874, 0.000000, -38.816152
33, 12.144368, 0.000000, -37.376521
34, 17.841827, 0.000000, -35.016556
35, 23.099960, 0.000000, -31.794368
36, 27.789297, 0.000000, -27.789297
37, 31.794368, 0.000000, -23.099960
38, 35.016556, 0.000000, -17.841827
39, 37.376521, 0.000000, -12.144368
40, 38.816152, 0.000000, -6.147874
41, 36.855914, 1.520833, 0.000000
42, 36.402156, 1.520833, 5.765535
43, 35.052057, 1.520833, 11.389104
44, 32.838860, 1.520833, 16.732235
45, 29.817061, 1.520833, 21.663363
46, 26.061067, 1.520833, 26.061067
47, 21.663363, 1.520833, 29.817061
48, 16.732235, 1.520833, 32.838860
49, 11.389104, 1.520833, 35.052057
50, 5.765535, 1.520833, 36.402156
51, 0.000000, 1.520833, 36.855914
52, -5.765535, 1.520833, 36.402156
53, -11.389104, 1.520833, 35.052057
54, -16.732235, 1.520833, 32.838860
55, -21.663363, 1.520833, 29.817061
56, -26.061067, 1.520833, 26.061067
57, -29.817061, 1.520833, 21.663363
58, -32.838860, 1.520833, 16.732235
59, -35.052057, 1.520833, 11.389104
60, -36.402156, 1.520833, 5.765535
61, -36.855914, 1.520833, 0.000000
62, -36.402156, 1.520833, -5.765535
63, -35.052057, 1.520833, -11.389104
64, -32.838860, 1.520833, -16.732235
65, -29.817061, 1.520833, -21.663363
66, -26.061067, 1.520833, -26.061067
67, -21.663363, 1.520833, -29.817061
68, -16.732235, 1.520833, -32.838860
69, -11.389104, 1.520833, -35.052057
70, -5.765535, 1.520833, -36.402156
71, -0.000000, 1.520833, -36.855914
72, 5.765535, 1.520833, -36.402156
73, 11.389104, 1.520833, -35.052057
74, 16.732235, 1.520833, -32.838860
75, 21.663363, 1.520833, -29.817061
76, 26.061067, 1.520833, -26.061067
77, 29.817061, 1.520833, -21.663363
78, 32.838860, 1.520833, -16.732235
79, 35.052057, 1.520833, -11.389104
80, 36.402156, 1.520833, -5.765535
81, 34.411828, 3.041667, 0.000000
82, 33.988161, 3.041667, 5.383196
83, 32.727593, 3.041667, 10.633840
84, 30.661163, 3.041667, 15.622643
85, 27.839753, 3.041667, 20.226765
86, 24.332837, 3.041667, 24.332837
87, 20.226765, 3.041667, 27.839753
88, 15.622643, 3.041667, 30.661163
89, 10.633840, 3.041667, 32.727593
90, 5.383196, 3.041667, 33.988161
91, 0.000000, 3.041667, 34.411828
92, -5.383196, 3.041667, 33.988161
93, -10.633840, 3.041667, 32.727593
94, -15.622643, 3.041667, 30.661163
95, -20.226765, 3.041667, 27.839753
96, -24.332837, 3.041667, 24.332837
97, -27.839753, 3.041667, 20.226765
98, -30.661163, 3.041667, 15.622643
99, -32.727593, 3.041667, 10.633840
100, -33.988161, 3.041667, 5.383196
101, -34.411828, 3.041667, 0.000000
102, -33.988161, 3.041667, -5.383196
103, -32.727593, 3.041667, -10.633840
104, -30.661163, 3.041667, -15.622643
105, -27.839753, 3.041667, -20.226765
106, -24.332837, 3.041667, -24.332837
107, -20.226765, 3.041667, -27.839753
108, -15.622643, 3.041667, -30.661163
109, -10.633840, 3.041667, -32.727593
110, -5.383196, 3.041667, -33.988161
111, -0.000000, 3.041667, -34.411828
112, 5.383196, 3.041667, -33.988161
113, 10.633840, 3.041667, -32.727593
114, 15.622643, 3.041667, -30.661163
115, 20.226765, 3.041667, -27.839753
116, 24.332837, 3.041667, -24.332837
117, 27.839753, 3.041667, -20.226765
118, 30.661163, 3.041667, -15.622643
119, 32.727593, 3.041667, -10.633840
120, 33.988161, 3.041667, -5.383196
121, 32.134427, 4.562500, 0.000000
122, 31.738799, 4.562500, 5.026932
123, 30.561656, 4.562500, 9.930084
124, 28.631984, 4.562500, 14.588725
125, 25.997297, 4.562500, 18.888142
126, 22.722471, 4.562500, 22.722471
127, 18.888142, 4.562500, 25.997297
128, 14.588725, 4.562500, 28.631984
129, 9.930084, 4.562500, 30.561656
130, 5.026932, 4.562500, 31.738799
131, 0.000000, 4.562500, 32.134427
132, -5.026932, 4.562500, 31.738799
133, -9.930084, 4.562500, 30.561656
134, -14.588725, 4.562500, 28.631984
135, -18.888142, 4.562500, 25.997297
136, -22.722471, 4.562500, 22.722471
137, -25.997297, 4.562500, 18.888142
138, -28.631984, 4.562500, 14.588725
139, -30.561656, 4.562500, 9.930084
140, -31.738799, 4.562500, 5.026932
141, -32.134427, 4.562500, 0.000000
142, -31.738799, 4.562500, -5.026932
143, -30.561656, 4.562500, -9.930084
144, -28.631984, 4.562500, -14.588725
145, -25.997297, 4.562500, -18.888142
146, -22.722471, 4.562500, -22.722471
147, -18.888142, 4.562500, -25.997297
148, -14.588725, 4.562500, -28.631984
149, -9.930084, 4.562500, -30.561656
150, -5.026932, 4.562500, -31.738799
151, -0.000000, 4.562500, -32.134427
152, 5.026932, 4.562500, -31.738799
153, 9.930084, 4.562500, -30.561656
154, 14.588725, 4.562500, -28.631984
155, 18.888142, 4.562500, -25.997297
156, 22.722471, 4.562500, -22.722471
157, 25.997297, 4.562500, -18.888142
158, 28.631984, 4.562500, -14.588725
159, 30.561656, 4.562500, -9.930084
160, 31.738799, 4.562500, -5.026932
161, 29.857026, 6.083333, 0.000000
162, 29.489437, 6.083333, 4.670668
163, 28.395719, 6.083333, 9.226328
164, 26.602805, 6.083333, 13.554806
165, 24.154842, 6.083333, 17.549520
166, 21.112106, 6.083333, 21.112106
167, 17.549520, 6.083333, 24.154842
168, 13.554806, 6.083333, 26.602805
169, 9.226328, 6.083333, 28.395719
170, 4.670668, 6.083333, 29.489437
171, 0.000000, 6.083333, 29.857026
172, -4.670668, 6.083333, 29.489437
173, -9.226328, 6.083333, 28.395719
174, -13.554806, 6.083333, 26.602805
175, -17.549520, 6.083333, 24.154842
176, -21.112106, 6.083333, 21.112106
177, -24.154842, 6.083333, 17.549520
178, -26.602805, 6.083333, 13.554806
179, -28.395719, 6.083333, 9.226328
180, -29.489437, 6.083333, 4.670668
181, -29.857026, 6.083333, 0.000000
182, -29.489437, 6.083333, -4.670668
183, -28.395719, 6.083333, -9.226328
184, -26.602805, 6.083333, -13.554806
185, -24.154842, 6.083333, -17.549520
186, -21.112106, 6.083333, -21.112106
187, -17.549520, 6.083333, -24.154842
188, -13.554806, 6.083333, -26.602805
189, -9.226328, 6.083333, -28.395719
190, -4.670668, 6.083333, -29.489437
191, -0.000000, 6.083333, -29.857026
192, 4.670668, 6.083333, -29.489437
193, 9.226328, 6.083333, -28.395719
194, 13.554806, 6.083333, -26.602805
195, 17.549520, 6.083333, -24.154842
196, 21.112106, 6.083333, -21.112106
197, 24.154842, 6.083333, -17.549520
198, 26.602805, 6.083333, -13.554806
199, 28.395719, 6.083333, -9.226328
200, 29.489437, 6.083333, -4.670668
201, 27.871159, 7.604167, 0.000000
202, 27.528018, 7.604167, 4.360010
203, 26.507047, 7.604167, 8.612662
204, 24.833384, 7.604167, 12.653241
205, 22.548241, 7.604167, 16.382256
206, 19.707885, 7.604167, 19.707885
207, 16.382256, 7.604167, 22.548241
208, 12.653241, 7.604167, 24.833384
209, 8.612662, 7.604167, 26.507047
210, 4.360010, 7.604167, 27.528018
211, 0.000000, 7.604167, 27.871159
212, -4.360010, 7.604167, 27.528018
213, -8.612662, 7.604167, 26.507047
214, -12.653241, 7.604167, 24.833384
215, -16.382256, 7.604167, 22.548241
216, -19.707885, 7.604167, 19.707885
217, -22.548241, 7.604167, 16.382256
218, -24.833384, 7.604167, 12.653241
219, -26.507047, 7.604167, 8.612662
220, -27.528018, 7.604167, 4.360010
221, -27.871159, 7.604167, 0.000000
222, -27.528018, 7.604167, -4.360010
223, -26.507047, 7.604167, -8.612662
224, -24.833384, 7.604167, -12.653241
225, -22.548241, 7.604167, -16.382256
226, -19.707885, 7.604167, -19.707885
227, -16.382256, 7.604167, -22.548241
228, -12.653241, 7.604167, -24.833384
229, -8.612662, 7.604167, -26.507047
230, -4.360010, 7.604167, -27.528018
231, -0.000000, 7.604167, -27.871159
232, 4.360010, 7.604167, -27.528018
233, 8.612662, 7.604167, -26.507047
234, 12.653241, 7.604167, -24.833384
235, 16.382256, 7.604167, -22.548241
236, 19.707885, 7.604167, -19.707885
237, 22.548241, 7.604167, -16.382256
238, 24.833384, 7.604167, -12.653241
239, 26.507047, 7.604167, -8.612662
240, 27.528018, 7.604167, -4.360010
241, 25.885291, 9.125000, 0.000000
242, 25.566600, 9.125000, 4.049352
243, 24.618375, 9.125000, 7.998995
244, 23.063963, 9.125000, 11.751676
245, 20.941640, 9.125000, 15.214992
246, 18.303665, 9.125000, 18.303665
247, 15.214992, 9.125000, 20.941640
248, 11.751676, 9.125000, 23.063963
249, 7.998995, 9.125000, 24.618375
250, 4.049352, 9.125000, 25.566600
251, 0.000000, 9.125000, 25.885291
252, -4.049352, 9.125000, 25.566600
253, -7.998995, 9.125000, 24.618375
254, -11.751676, 9.125000, 23.063963
255, -15.214992, 9.125000, 20.941640
256, -18.303665, 9.125000, 18.303665
257, -20.941640, 9.125000, 15.214992
258, -23.063963, 9.125000, 11.751676
259, -24.618375, 9.125000, 7.998995
260, -25.566600, 9.125000, 4.049352
261, -25.885291, 9.125000, 0.000000
262, -25.566600, 9.125000, -4.049352
263, -24.618375, 9.125000, -7.998995
264, -23.063963, 9.125000, -11.751676
265, -20.941640, 9.125000, -15.214992
266, -18.303665, 9.125000, -18.303665
267, -15.214992, 9.125000, -20.941640
268, -11.751676, 9.125000, -23.063963
269, -7.998995, 9.125000, -24.618375
270, -4.049352, 9.125000, -25.566600
271, -0.000000, 9.125000, -25.885291
272, 4.049352, 9.125000, -25.566600
273, 7.998995, 9.125000, -24.618375
274, 11.751676, 9.125000, -23.063963
275, 15.214992, 9.125000, -20.941640
276, 18.303665, 9.125000, -18.303665
277, 20.941640, 9.125000, -15.214992
278, 23.063963, 9.125000, -11.751676
279, 24.618375, 9.125000, -7.998995
280, 25.566600, 9.125000, -4.049352
281, 24.279466, 10.645833, 0.000000
282, 23.980545, 10.645833, 3.798145
283, 23.091144, 10.645833, 7.502767
284, 21.633162, 10.645833, 11.022647
285, 19.642500, 10.645833, 14.271112
286, 17.168175, 10.645833, 17.168175
287, 14.271112, 10.645833, 19.642500
288, 11.022647, 10.645833, 21.633162
289, 7.502767, 10.645833, 23.091144
290, 3.798145, 10.645833, 23.980545
291, 0.000000, 10.645833, 24.279466
292, -3.798145, 10.645833, 23.980545
293, -7.502767, 10.645833, 23.091144
294, -11.022647, 10.645833, 21.633162
295, -14.271112, 10.645833, 19.642500
296, -17.168175, 10.645833, 17.168175
297, -19.642500, 10.645833, 14.271112
298, -21.633162, 10.645833, 11.022647
299, -23.091144, 10.645833, 7.502767
300, -23.980545, 10.645833, 3.798145
301, -24.279466, 10.645833, 0.000000
302, -23.980545, 10.645833, -3.798145
303, -23.091144, 10.645833, -7.502767
304, -21.633162, 10.645833, -11.022647
305, -19.642500, 10.645833, -14.271112
306, -17.168175, 10.645833, -17.168175
307, -14.271112, 10.645833, -19.642500
308, -11.022647, 10.645833, -21.633162
309, -7.502767, 10.645833, -23.091144
310, -3.798145, 10.645833, -23.980545
311, -0.000000, 10.645833, -24.279466
312, 3.798145, 10.645833, -23.980545
313, 7.502767, 10.645833, -23.091144
314, 11.022647, 10.645833, -21.633162
315, 14.271112, 10.645833, -19.642500
316, 17.168175, 10.645833, -17.168175
317, 19.642500, 10.645833, -14.271112
318, 21.633162, 10.645833, -11.022647
319, 23.091144, 10.645833, -7.502767
320, 23.980545, 10.645833, -3.798145
321, 22.673640, 12.166667, 0.000000
322, 22.394490, 12.166667, 3.546939
323, 21.563913, 12.166667, 7.006540
324, 20.202361, 12.166667, 10.293617
325, 18.343360, 12.166667, 13.327231
326, 16.032685, 12.166667, 16.032685
327, 13.327231, 12.166667, 18.343360
328, 10.293617, 12.166667, 20.202361
329, 7.006540, 12.166667, 21.563913
330, 3.546939, 12.166667, 22.394490
331, 0.000000, 12.166667, 22.673640
332, -3.546939, 12.166667, 22.394490
333, -7.006540, 12.166667, 21.563913
334, -10.293617, 12.166667, 20.202361
335, -13.327231, 12.166667, 18.343360
336, -16.032685, 12.166667, 16.032685
337, -18.343360, 12.166667, 13.327231
338, -20.202361, 12.166667, 10.293617
339, -21.563913, 12.166667, 7.006540
340, -22.394490, 12.166667, 3.546939
341, -22.673640, 12.166667, 0.000000
342, -22.394490, 12.166667, -3.546939
343, -21.563913, 12.166667, -7.006540
344, -20.202361, 12.166667, -10.293617
345, -18.343360, 12.166667, -13.327231
346, -16.032685, 12.166667, -16.032685
347, -13.327231, 12.166667, -18.343360
348, -10.293617, 12.166667, -20.202361
349, -7.006540, 12.166667, -21.563913
350, -3.546939, 12.166667, -22.394490
351, -0.000000, 12.166667, -22.673640
352, 3.546939, 12.166667, -22.394490
353, 7.006540, 12.166667, -21.563913
354, 10.293617, 12.166667, -20.202361
355, 13.327231, 12.166667, -18.343360
356, 16.032685, 12.166667, -16.032685
357, 18.343360, 12.166667, -13.327231
358, 20.202361, 12.166667, -10.293617
359, 21.563913, 12.166667, -7.006540
360, 22.394490, 12.166667, -3.546939
361, 21.504837, 13.687500, 0.000000
362, 21.240076, 13.687500, 3.364098
363, 20.452315, 13.687500, 6.645360
364, 19.160950, 13.687500, 9.762991
365, 17.397778, 13.687500, 12.640226
366, 15.206216, 13.687500, 15.206216
367, 12.640226, 13.687500, 17.397778
368, 9.762991, 13.687500, 19.160950
369, 6.645360, 13.687500, 20.452315
370, 3.364098, 13.687500, 21.240076
371, 0.000000, 13.687500, 21.504837
372, -3.364098, 13.687500, 21.240076
373, -6.645360, 13.687500, 20.452315
374, -9.762991, 13.687500, 19.160950
375, -12.640226, 13.687500, 17.397778
376, -15.206216, 13.687500, 15.206216
377, -17.397778, 13.687500, 12.640226
378, -19.160950, 13.687500, 9.762991
379, -20.452315, 13.687500, 6.645360
380, -21.240076, 13.687500, 3.364098
381, -21.504837, 13.687500, 0.000000
382, -21.240076, 13.687500, -3.364098
383, -20.452315, 13.687500, -6.645360
384, -19.160950, 13.687500, -9.762991
385, -17.397778, 13.687500, -12.640226
386, -15.206216, 13.687500, -15.206216
387, -12.640226, 13.687500, -17.397778
388, -9.762991, 13.687500, -19.160950
389, -6.645360, 13.687500, -20.452315
390, -3.364098, 13.687500, -21.240076
391, -0.000000, 13.687500, -21.504837
392, 3.364098, 13.687500, -21.240076
393, 6.645360, 13.687500, -20.452315
394, 9.762991, 13.687500, -19.160950
395, 12.640226, 13.687500, -17.397778
396, 15.206216, 13.687500, -15.206216
397, 17.397778, 13.687500, -12.640226
398, 19.160950, 13.687500, -9.762991
399, 20.452315, 13.687500, -6.645360
400, 21.240076, 13.687500, -3.364098
401, 20.336033, 15.208333, 0.000000
402, 20.085663, 15.208333, 3.181256
403, 19.340717, 15.208333, 6.284180
404, 18.119538, 15.208333, 9.232366
405, 16.452196, 15.208333, 11.953220
406, 14.379747, 15.208333, 14.379747
407, 11.953220, 15.208333, 16.452196
408, 9.232366, 15.208333, 18.119538
409, 6.284180, 15.208333, 19.340717
410, 3.181256, 15.208333, 20.085663
411, 0.000000, 15.208333, 20.336033
412, -3.181256, 15.208333, 20.085663
413, -6.284180, 15.208333, 19.340717
414, -9.232366, 15.208333, 18.119538
415, -11.953220, 15.208333, 16.452196
416, -14.379747, 15.208333, 14.379747
417, -16.452196, 15.208333, 11.953220
418, -18.119538, 15.208333, 9.232366
419, -19.340717, 15.208333, 6.284180
420, -20.085663, 15.208333, 3.181256
421, -20.336033, 15.208333, 0.000000
422, -20.085663, 15.208333, -3.181256
423, -19.340717, 15.208333, -6.284180
424, -18.119538, 15.208333, -9.232366
425, -16.452196, 15.208333, -11.953220
426, -14.379747, 15.208333, -14.379747
427, -11.953220, 15.208333, -16.452196
428, -9.232366, 15.208333, -18.119538
429, -6.284180, 15.208333, -19.340717
430, -3.181256, 15.208333, -20.085663
431, -0.000000, 15.208333, -20.336033
432, 3.181256, 15.208333, -20.085663
433, 6.284180, 15.208333, -19.340717
434, 9.232366, 15.208333, -18.119538
435, 11.953220, 15.208333, -16.452196
436, 14.379747, 15.208333, -14.379747
437, 16.452196, 15.208333, -11.953220
438, 18.119538, 15.208333, -9.232366
439, 19.340717, 15.208333, -6.284180
440, 20.085663, 15.208333, -3.181256
441, 19.633618, 16.729167, 0.000000
442, 19.391895, 16.729167, 3.071374
443, 18.672680, 16.729167, 6.067121
444, 17.493681, 16.729167, 8.913476
445, 15.883930, 16.729167, 11.540351
446, 13.883064, 16.729167, 13.883064
447, 11.540351, 16.729167, 15.883930
448, 8.913476, 16.729167, 17.493681
449, 6.067121, 16.729167, 18.672680
450, 3.071374, 16.729167, 19.391895
451, 0.000000, 16.729167, 19.633618
452, -3.071374, 16.729167, 19.391895
453, -6.067121, 16.729167, 18.672680
454, -8.913476, 16.729167, 17.493681
455, -11.540351, 16.729167, 15.883930
456, -13.883064, 16.729167, 13.883064
457, -15.883930, 16.729167, 11.540351
458, -17.493681, 16.729167, 8.913476
459, -18.672680, 16.729167, 6.067121
460, -19.391895, 16.729167, 3.071374
461, -19.633618, 16.729167, 0.000000
462, -19.391895, 16.729167, -3.071374
463, -18.672680, 16.729167, -6.067121
464, -17.493681, 16.729167, -8.913476
465, -15.883930, 16.729167, -11.540351
466, -13.883064, 16.729167, -13.883064
467, -11.540351, 16.729167, -15.883930
468, -8.913476, 16.729167, -17.493681
469, -6.067121, 16.729167, -18.672680
470, -3.071374, 16.729167, -19.391895
471, -0.000000, 16.729167, -19.633618
472, 3.071374, 16.729167, -19.391895
473, 6.067121, 16.729167, -18.672680
474, 8.913476, 16.729167, -17.493681
475, 11.540351, 16.729167, -15.883930
476, 13.883064, 16.729167, -13.883064
477, 15.883930, 16.729167, -11.540351
478, 17.493681, 16.729167, -8.913476
479, 18.672680, 16.729167, -6.067121
480, 19.391895, 16.729167, -3.071374
481, 18.931202, 18.250000, 0.000000
482, 18.698128, 18.250000, 2.961492
483, 18.004643, 18.250000, 5.850063
484, 16.867825, 18.250000, 8.594586
485, 15.315664, 18.250000, 11.127481
486, 13.386381, 18.250000, 13.386381
487, 11.127481, 18.250000, 15.315664
488, 8.594586, 18.250000, 16.867825
489, 5.850063, 18.250000, 18.004643
490, 2.961492, 18.250000, 18.698128
491, 0.000000, 18.250000, 18.931202
492, -2.961492, 18.250000, 18.698128
493, -5.850063, 18.250000, 18.004643
494, -8.594586, 18.250000, 16.867825
495, -11.127481, 18.250000, 15.315664
496, -13.386381, 18.250000, 13.386381
497, -15.315664, 18.250000, 11.127481
498, -16.867825, 18.250000, 8.594586
499, -18.004643, 18.250000, 5.850063
500, -18.698128, 18.250000, 2.961492
501, -18.931202, 18.250000, 0.000000
502, -18.698128, 18.250000, -2.961492
503, -18.004643, 18.250000, -5.850063
504, -16.867825, 18.250000, -8.594586
505, -15.315664, 18.250000, -11.127481
506, -13.386381, 18.250000, -13.386381
507, -11.127481, 18.250000, -15.315664
508, -8.594586, 18.250000, -16.867825
509, -5.850063, 18.250000, -18.004643
510, -2.961492, 18.250000, -18.698128
511, -0.000000, 18.250000, -18.931202
512, 2.961492, 18.250000, -18.698128
513, 5.850063, 18.250000, -18.004643
514, 8.594586, 18.250000, -16.867825
515, 11.127481, 18.250000, -15.315664
516, 13.386381, 18.250000, -13.386381
517, 15.315664, 18.250000, -11.127481
518, 16.867825, 18.250000, -8.594586
519, 18.004643, 18.250000, -5.850063
520, 18.698128, 18.250000, -2.961492
521, 18.699817, 19.770833, 0.000000
522, 18.469592, 19.770833, 2.925296
523, 17.784583, 19.770833, 5.778561
524, 16.661659, 19.770833, 8.489539
525, 15.128470, 19.770833, 10.991477
526, 13.222768, 19.770833, 13.222768
527, 10.991477, 19.770833, 15.128470
528, 8.489539, 19.770833, 16.661659
529, 5.778561, 19.770833, 17.784583
530, 2.925296, 19.770833, 18.469592
531, 0.000000, 19.770833, 18.699817
532, -2.925296, 19.770833, 18.469592
533, -5.778561, 19.770833, 17.784583
534, -8.489539, 19.770833, 16.661659
535, -10.991477, 19.770833, 15.128470
536, -13.222768, 19.770833, 13.222768
537, -15.128470, 19.770833, 10.991477
538, -16.661659, 19.770833, 8.489539
539, -17.784583, 19.770833, 5.778561
540, -18.469592, 19.770833, 2.925296
541, -18.699817, 19.770833, 0.000000
542, -18.469592, 19.770833, -2.925296
543, -17.784583, 19.770833, -5.778561
544, -16.661659, 19.770833, -8.489539
545, -15.128470, 19.770833, -10.991477
546, -13.222768, 19.770833, -13.222768
547, -10.991477, 19.770833, -15.128470
548, -8.489539, 19.770833, -16.661659
549, -5.778561, 19.770833, -17.784583
550, -2.925296, 19.770833, -18.469592
551, -0.000000, 19.770833, -18.699817
552, 2.925296, 19.770833, -18.469592
553, 5.778561, 19.770833, -17.784583
554, 8.489539, 19.770833, -16.661659
555, 10.991477, 19.770833, -15.128470
556, 13.222768, 19.770833, -13.222768
557, 15.128470, 19.770833, -10.991477
558, 16.661659, 19.770833, -8.489539
559, 17.784583, 19.770833, -5.778561
560, 18.469592, 19.770833, -2.925296
561, 18.468433, 21.291667, 0.000000
562, 18.241055, 21.291667, 2.889099
563, 17.564523, 21.291667, 5.707060
564, 16.455494, 21.291667, 8.384493
565, 14.941276, 21.291667, 10.855472
566, 13.059154, 21.291667, 13.059154
567, 10.855472, 21.291667, 14.941276
568, 8.384493, 21.291667, 16.455494
569, 5.707060, 21.291667, 17.564523
570, 2.889099, 21.291667, 18.241055
571, 0.000000, 21.291667, 18.468433
572, -2.889099, 21.291667, 18.241055
573, -5.707060, 21.291667, 17.564523
574, -8.384493, 21.291667, 16.455494
575, -10.855472, 21.291667, 14.941276
576, -13.059154, 21.291667, 13.059154
577, -14.941276, 21.291667, 10.855472
578, -16.455494, 21.291667, 8.384493
579, -17.564523, 21.291667, 5.707060
580, -18.241055, 21.291667, 2.889099
581, -18.468433, 21.291667, 0.000000
582, -18.241055, 21.291667, -2.889099
583, -17.564523, 21.291667, -5.707060
584, -16.455494, 21.291667, -8.384493
585, -14.941276, 21.291667, -10.855472
586, -13.059154, 21.291667, -13.059154
587, -10.855472, 21.291667, -14.941276
588, -8.384493, 21.291667, -16.455494
589, -5.707060, 21.291667, -17.564523
590, -2.889099, 21.291667, -18.241055
591, -0.000000, 21.291667, -18.468433
592, 2.889099, 21.291667, -18.241055
593, 5.707060, 21.291667, -17.564523
594, 8.384493, 21.291667, -16.455494
595, 10.855472, 21.291667, -14.941276
596, 13.059154, 21.291667, -13.059154
597, 14.941276, 21.291667, -10.855472
598, 16.455494, 21.291667, -8.384493
599, 17.564523, 21.291667, -5.707060
600, 18.241055, 21.291667, -2.889099
601, 18.689769, 22.812500, 0.000000
602, 18.459667, 22.812500, 2.923724
603, 17.775027, 22.812500, 5.775456
604, 16.652706, 22.812500, 8.484978
605, 15.120341, 22.812500, 10.985571
606, 13.215663, 22.812500, 13.215663
607, 10.985571, 22.812500, 15.120341
608, 8.484978, 22.812500, 16.652706
609, 5.775456, 22.812500, 17.775027
610, 2.923724, 22.812500, 18.459667
611, 0.000000, 22.812500, 18.689769
612, -2.923724, 22.812500, 18.459667
613, -5.775456, 22.812500, 17.775027
614, -8.484978, 22.812500, 16.652706
615, -10.985571, 22.812500, 15.120341
616, -13.215663, 22.812500, 13.215663
617, -15.120341, 22.812500, 10.985571
618, -16.652706, 22.812500, 8.484978
619, -17.775027, 22.812500, 5.775456
620, -18.459667, 22.812500, 2.923724
621, -18.689769, 22.812500, 0.000000
622, -18.459667, 22.812500, -2.923724
623, -17.775027, 22.812500, -5.775456
624, -16.652706, 22.812500, -8.484978
625, -15.120341, 22.812500, -10.985571
626, -13.215663, 22.812500, -13.215663
627, -10.985571, 22.812500, -15.120341
628, -8.484978, 22.812500, -16.652706
629, -5.775456, 22.812500, -17.775027
630, -2.923724, 22.812500, -18.459667
631, -0.000000, 22.812500, -18.689769
632, 2.923724, 22.812500, -18.459667
633, 5.775456, 22.812500, -17.775027
634, 8.484978, 22.812500, -16.652706
635, 10.985571, 22.812500, -15.120341
636, 13.215663, 22.812500, -13.215663
637, 15.120341, 22.812500, -10.985571
638, 16.652706, 22.812500, -8.484978
639, 17.775027, 22.812500, -5.775456
640, 18.459667, 22.812500, -2.923724
641, 18.911106, 24.333333, 0.000000
642, 18.678279, 24.333333, 2.958349
643, 17.985531, 24.333333, 5.843853
644, 16.849919, 24.333333, 8.585462
645, 15.299406, 24.333333, 11.115669
646, 13.372171, 24.333333, 13.372171
647, 11.115669, 24.333333, 15.299406
648, 8.585462, 24.333333, 16.849919
649, 5.843853, 24.333333, 17.985531
650, 2.958349, 24.333333, 18.678279
651, 0.000000, 24.333333, 18.911106
652, -2.958349, 24.333333, 18.678279
653, -5.843853, 24.333333, 17.985531
654, -8.585462, 24.333333, 16.849919
655, -11.115669, 24.333333, 15.299406
656, -13.372171, 24.333333, 13.372171
657, -15.299406, 24.333333, 11.115669
658, -16.849919, 24.333333, 8.585462
659, -17.985531, 24.333333, 5.843853
660, -18.678279, 24.333333, 2.958349
661, -18.911106, 24.333333, 0.000000
662, -18.678279, 24.333333, -2.958349
663, -17.985531, 24.333333, -5.843853
664, -16.849919, 24.333333, -8.585462
665, -15.299406, 24.333333, -11.115669
666, -13.372171, 24.333333, -13.372171
667, -11.115669, 24.333333, -15.299406
668, -8.585462, 24.333333, -16.849919
669, -5.843853, 24.333333, -17.985531
670, -2.958349, 24.333333, -18.678279
671, -0.000000, 24.333333, -18.911106
672, 2.958349, 24.333333, -18.678279
673, 5.843853, 24.333333, -17.985531
674, 8.585462, 24.333333, -16.849919
675, 11.115669, 24.333333, -15.299406
676, 13.372171, 24.333333, -13.372171
677, 15.299406, 24.333333, -11.115669
678, 16.849919, 24.333333, -8.585462
679, 17.985531, 24.333333, -5.843853
680, 18.678279, 24.333333, -2.958349
681, 19.544490, 25.854167, 0.000000
682, 19.303864, 25.854167, 3.057432
683, 18.587914, 25.854167, 6.039579
684, 17.414268, 25.854167, 8.873013
685, 15.811824, 25.854167, 11.487963
686, 13.820041, 25.854167, 13.820041
687, 11.487963, 25.854167, 15.811824
688, 8.873013, 25.854167, 17.414268
689, 6.039579, 25.854167, 18.587914
690, 3.057432, 25.854167, 19.303864
691, 0.000000, 25.854167, 19.544490
692, -3.057432, 25.854167, 19.303864
693, -6.039579, 25.854167, 18.587914
694, -8.873013, 25.854167, 17.414268
695, -11.487963, 25.854167, 15.811824
696, -13.820041, 25.854167, 13.820041
697, -15.811824, 25.854167, 11.487963
698, -17.414268, 25.854167, 8.873013
699, -18.587914, 25.854167, 6.039579
700, -19.303864, 25.854167, 3.057432
701, -19.544490, 25.854167, 0.000000
702, -19.303864, 25.854167, -3.057432
703, -18.587914, 25.854167, -6.039579
704, -17.414268, 25.854167, -8.873013
705, -15.811824, 25.854167, -11.487963
706, -13.820041, 25.854167, -13.820041
707, -11.487963, 25.854167, -15.811824
708, -8.873013, 25.854167, -17.414268
709, -6.039579, 25.854167, -18.587914
710, -3.057432, 25.854167, -19.303864
711, -0.000000, 25.854167, -19.544490
712, 3.057432, 25.854167, -19.303864
713, 6.039579, 25.854167, -18.587914
714, 8.873013, 25.854167, -17.414268
715, 11.487963, 25.854167, -15.811824
716, 13.820041, 25.854167, -13.820041
717, 15.811824, 25.854167, -11.487963
718, 17.414268, 25.854167, -8.873013
719, 18.587914, 25.854167, -6.039579
720, 19.303864, 25.854167, -3.057432
721, 20.177873, 27.375000, 0.000000
722, 19.929450, 27.375000, 3.156515
723, 19.190298, 27.375000, 6.235306
724, 17.978617, 27.375000, 9.160563
725, 16.324242, 27.375000, 11.860256
726, 14.267911, 27.375000, 14.267911
727, 11.860256, 27.375000, 16.324242
728, 9.160563, 27.375000, 17.978617
729, 6.235306, 27.375000, 19.190298
730, 3.156515, 27.375000, 19.929450
731, 0.000000, 27.375000, 20.177873
732, -3.156515, 27.375000, 19.929450
733, -6.235306, 27.375000, 19.190298
734, -9.160563, 27.375000, 17.978617
735, -11.860256, 27.375000, 16.324242
736, -14.267911, 27.375000, 14.267911
737, -16.324242, 27.375000, 11.860256
738, -17.978617, 27.375000, 9.160563
739, -19.190298, 27.375000, 6.235306
740, -19.929450, 27.375000, 3.156515
741, -20.177873, 27.375000, 0.000000
742, -19.929450, 27.375000, -3.156515
743, -19.190298, 27.375000, -6.235306
744, -17.978617, 27.375000, -9.160563
745, -16.324242, 27.375000, -11.860256
746, -14.267911, 27.375000, -14.267911
747, -11.860256, 27.375000, -16.324242
748, -9.160563, 27.375000, -17.978617
749, -6.235306, 27.375000, -19.190298
750, -3.156515, 27.375000, -19.929450
751, -0.000000, 27.375000, -20.177873
752, 3.156515, 27.375000, -19.929450
753, 6.235306, 27.375000, -19.190298
754, 9.160563, 27.375000, -17.978617
755, 11.860256, 27.375000, -16.324242
756, 14.267911, 27.375000, -14.267911
757, 16.324242, 27.375000, -11.860256
758, 17.978617, 27.375000, -9.160563
759, 19.190298, 27.375000, -6.235306
760, 19.929450, 27.375000, -3.156515
761, 21.159682, 28.895833, 0.000000
762, 20.899171, 28.895833, 3.310103
763, 20.124053, 28.895833, 6.538701
764, 18.853414, 28.895833, 9.606294
765, 17.118542, 28.895833, 12.437349
766, 14.962154, 28.895833, 14.962154
767, 12.437349, 28.895833, 17.118542
768, 9.606294, 28.895833, 18.853414
769, 6.538701, 28.895833, 20.124053
770, 3.310103, 28.895833, 20.899171
771, 0.000000, 28.895833, 21.159682
772, -3.310103, 28.895833, 20.899171
773, -6.538701, 28.895833, 20.124053
774, -9.606294, 28.895833, 18.853414
775, -12.437349, 28.895833, 17.118542
776, -14.962154, 28.895833, 14.962154
777, -17.118542, 28.895833, 12.437349
778, -18.853414, 28.895833, 9.606294
779, -20.124053, 28.895833, 6.538701
780, -20.899171, 28.895833, 3.310103
781, -21.159682, 28.895833, 0.000000
782, -20.899171, 28.895833, -3.310103
783, -20.124053, 28.895833, -6.538701
784, -18.853414, 28.895833, -9.606294
785, -17.118542, 28.895833, -12.437349
786, -14.962154, 28.895833, -14.962154
787, -12.437349, 28.895833, -17.118542
788, -9.606294, 28.895833, -18.853414
789, -6.538701, 28.895833, -20.124053
790, -3.310103, 28.895833, -20.899171
791, -0.000000, 28.895833, -21.159682
792, 3.310103, 28.895833, -20.899171
793, 6.538701, 28.895833, -20.124053
794, 9.606294, 28.895833, -18.853414
795, 12.437349, 28.895833, -17.118542
796, 14.962154, 28.895833, -14.962154
797, 17.118542, 28.895833, -12.437349
798, 18.853414, 28.895833, -9.606294
799, 20.124053, 28.895833, -6.538701
800, 20.899171, 28.895833, -3.310103
801, 22.141490, 30.416667, 0.000000
802, 21.868891, 30.416667, 3.463692
803, 21.057808, 30.416667, 6.842097
804, 19.728212, 30.416667, 10.052026
805, 17.912842, 30.416667, 13.014441
806, 15.656398, 30.416667, 15.656398
807, 13.014441, 30.416667, 17.912842
808, 10.052026, 30.416667, 19.728212
809, 6.842097, 30.416667, 21.057808
810, 3.463692, 30.416667, 21.868891
811, 0.000000, 30.416667, 22.141490
812, -3.463692, 30.416667, 21.868891
813, -6.842097, 30.416667, 21.057808
814, -10.052026, 30.416667, 19.728212
815, -13.014441, 30.416667, 17.912842
816, -15.656398, 30.416667, 15.656398
817, -17.912842, 30.416667, 13.014441
818, -19.728212, 30.416667, 10.052026
819, -21.057808, 30.416667, 6.842097
820, -21.868891, 30.416667, 3.463692
821, -22.141490, 30.416667, 0.000000
822, -21.868891, 30.416667, -3.463692
823, -21.057808, 30.416667, -6.842097
824, -19.728212, 30.416667, -10.052026
825, -17.912842, 30.416667, -13.014441
826, -15.656398, 30.416667, -15.656398
827, -13.014441, 30.416667, -17.912842
828, -10.052026, 30.416667, -19.728212
829, -6.842097, 30.416667, -21.057808
830, -3.463692, 30.416667, -21.868891
831, -0.000000, 30.416667, -22.141490
832, 3.463692, 30.416667, -21.868891
833, 6.842097, 30.416667, -21.057808
834, 10.052026, 30.416667, -19.728212
835, 13.014441, 30.416667, -17.912842
836, 15.656398, 30.416667, -15.656398
837, 17.912842, 30.416667, -13.014441
838, 19.728212, 30.416667, -10.052026
839, 21.057808, 30.416667, -6.842097
840, 21.868891, 30.416667, -3.463692
841, 23.383555, 31.937500, 0.000000
842, 23.095665, 31.937500, 3.657994
843, 22.239083, 31.937500, 7.225916
844, 20.834900, 31.937500, 10.615912
845, 18.917694, 31.937500, 13.744509
846, 16.534670, 31.937500, 16.534670
847, 13.744509, 31.937500, 18.917694
848, 10.615912, 31.937500, 20.834900
849, 7.225916, 31.937500, 22.239083
850, 3.657994, 31.937500, 23.095665
851, 0.000000, 31.937500, 23.383555
852, -3.657994, 31.937500, 23.095665
853, -7.225916, 31.937500, 22.239083
854, -10.615912, 31.937500, 20.834900
855, -13.744509, 31.937500, 18.917694
856, -16.534670, 31.937500, 16.534670
857, -18.917694, 31.937500, 13.744509
858, -20.834900, 31.937500, 10.615912
859, -22.239083, 31.937500, 7.225916
860, -23.095665, 31.937500, 3.657994
861, -23.383555, 31.937500, 0.000000
862, -23.095665, 31.937500, -3.657994
863, -22.239083, 31.937500, -7.225916
864, -20.834900, 31.937500, -10.615912
865, -18.917694, 31.937500, -13.744509
866, -16.534670, 31.937500, -16.534670
867, -13.744509, 31.937500, -18.917694
868, -10.615912, 31.937500, -20.834900
869, -7.225916, 31.937500, -22.239083
870, -3.657994, 31.937500, -23.095665
871, -0.000000, 31.937500, -23.383555
872, 3.657994, 31.937500, -23.095665
873, 7.225916, 31.937500, -22.239083
874, 10.615912, 31.937500, -20.834900
875, 13.744509, 31.937500, -18.917694
876, 16.534670, 31.937500, -16.534670
877, 18.917694, 31.937500, -13.744509
878, 20.834900, 31.937500, -10.615912
879, 22.239083, 31.937500, -7.225916
880, 23.095665, 31.937500, -3.657994
881, 24.625620, 33.458333, 0.000000
882, 24.322438, 33.458333, 3.852296
883, 23.420357, 33.458333, 7.609735
884, 21.941588, 33.458333, 11.179798
885, 19.922545, 33.458333, 14.474577
886, 17.412943, 33.458333, 17.412943
887, 14.474577, 33.458333, 19.922545
888, 11.179798, 33.458333, 21.941588
889, 7.609735, 33.458333, 23.420357
890, 3.852296, 33.458333, 24.322438
891, 0.000000, 33.458333, 24.625620
892, -3.852296, 33.458333, 24.322438
893, -7.609735, 33.458333, 23.420357
894, -11.179798, 33.458333, 21.941588
895, -14.474577, 33.458333, 19.922545
896, -17.412943, 33.458333, 17.412943
897, -19.922545, 33.458333, 14.474577
898, -21.941588, 33.458333, 11.179798
899, -23.420357, 33.458333, 7.609735
900, -24.322438, 33.458333, 3.852296
901, -24.625620, 33.458333, 0.000000
902, -24.322438, 33.458333, -3.852296
903, -23.420357, 33.458333, -7.609735
904, -21.941588, 33.458333, -11.179798
905, -19.922545, 33.458333, -14.474577
906, -17.412943, 33.458333, -17.412943
907, -14.474577, 33.458333, -19.922545
908, -11.179798, 33.458333, -21.941588
909, -7.609735, 33.458333, -23.420357
910, -3.852296, 33.458333, -24.322438
911, -0.000000, 33.458333, -24.625620
912, 3.852296, 33.458333, -24.322438
913, 7.609735, 33.458333, -23.420357
914, 11.179798, 33.458333, -21.941588
915, 14.474577, 33.458333, -19.922545
916, 17.412943, 33.458333, -17.412943
917, 19.922545, 33.458333, -14.474577
918, 21.941588, 33.458333, -11.179798
919, 23.420357, 33.458333, -7.609735
920, 24.322438, 33.458333, -3.852296
921, 26.012810, 34.979167, 0.000000
922, 25.692549, 34.979167, 4.069300
923, 24.739653, 34.979167, 8.038400
924, 23.177584, 34.979167, 11.809569
925, 21.044806, 34.979167, 15.289946
926, 18.393835, 34.979167, 18.393835
927, 15.289946, 34.979167, 21.044806
928, 11.809569, 34.979167, 23.177584
929, 8.038400, 34.979167, 24.739653
930, 4.069300, 34.979167, 25.692549
931, 0.000000, 34.979167, 26.012810
932, -4.069300, 34.979167, 25.692549
933, -8.038400, 34.979167, 24.739653
934, -11.809569, 34.979167, 23.177584
935, -15.289946, 34.979167, 21.044806
936, -18.393835, 34.979167, 18.393835
937, -21.044806, 34.979167, 15.289946
938, -23.177584, 34.979167, 11.809569
939, -24.739653, 34.979167, 8.038400
940, -25.692549, 34.979167, 4.069300
941, -26.012810, 34.979167, 0.000000
942, -25.692549, 34.979167, -4.069300
943, -24.739653, 34.979167, -8.038400
944, -23.177584, 34.979167, -11.809569
945, -21.044806, 34.979167, -15.289946
946, -18.393835, 34.979167, -18.393835
947, -15.289946, 34.979167, -21.044806
948, -11.809569, 34.979167, -23.177584
949, -8.038400, 34.979167, -24.739653
950, -4.069300, 34.979167, -25.692549
951, -0.000000, 34.979167, -26.012810
952, 4.069300, 34.979167, -25.692549
953, 8.038400, 34.979167, -24.739653
954, 11.809569, 34.979167, -23.177584
955, 15.289946, 34.979167, -21.044806
956, 18.393835, 34.979167, -18.393835
957, 21.044806, 34.979167, -15.289946
958, 23.177584, 34.979167, -11.809569
959, 24.739653, 34.979167, -8.038400
960, 25.692549, 34.979167, -4.069300
961, 27.400000, 36.500000, 0.000000
962, 27.062661, 36.500000, 4.286304
963, 26.058949, 36.500000, 8.467066
964, 24.413579, 36.500000, 12.439340
965, 22.167066, 36.500000, 16.105316
966, 19.374726, 36.500000, 19.374726
967, 16.105316, 36.500000, 22.167066
968, 12.439340, 36.500000, 24.413579
969, 8.467066, 36.500000, 26.058949
970, 4.286304, 36.500000, 27.062661
971, 0.000000, 36.500000, 27.400000
972, -4.286304, 36.500000, 27.062661
973, -8.467066, 36.500000, 26.058949
974, -12.439340, 36.500000, 24.413579
975, -16.105316, 36.500000, 22.167066
976, -19.374726, 36.500000, 19.374726
977, -22.167066, 36.500000, 16.105316
978, -24.413579, 36.500000, 12.439340
979, -26.058949, 36.500000, 8.467066
980, -27.062661, 36.500000, 4.286304
981, -27.400000, 36.500000, 0.000000
982, -27.062661, 36.500000, -4.286304
983, -26.058949, 36.500000, -8.467066
984, -24.413579, 36.500000, -12.439340
985, -22.167066, 36.500000, -16.105316
986, -19.374726, 36.500000, -19.374726
987, -16.105316, 36.500000, -22.167066
988, -12.439340, 36.500000, -24.413579
989, -8.467066, 36.500000, -26.058949
990, -4.286304, 36.500000, -27.062661
991, -0.000000, 36.500000, -27.400000
992, 4.286304, 36.500000, -27.062661
993, 8.467066, 36.500000, -26.058949
994, 12.439340, 36.500000, -24.413579
995, 16.105316, 36.500000, -22.167066
996, 19.374726, 36.500000, -19.374726
997, 22.167066, 36.500000, -16.105316
998, 24.413579, 36.500000, -12.439340
999, 26.058949, 36.500000, -8.467066
1000, 27.062661, 36.500000, -4.286304
*ELEMENT, TYPE=S4R, ELSET=EALL
1, 1, 2, 42, 41
2, 2, 3, 43, 42
3, 3, 4, 44, 43
4, 4, 5, 45, 44
5, 5, 6, 46, 45
6, 6, 7, 47, 46
7, 7, 8, 48, 47
8, 8, 9, 49, 48
9, 9, 10, 50, 49
10, 10, 11, 51, 50
11, 11, 12, 52, 51
12, 12, 13, 53, 52
13, 13, 14, 54, 53
14, 14, 15, 55, 54
15, 15, 16, 56, 55
16, 16, 17, 57, 56
17, 17, 18, 58, 57
18, 18, 19, 59, 58
19, 19, 20, 60, 59
20, 20, 21, 61, 60
21, 21, 22, 62, 61
22, 22, 23, 63, 62
23, 23, 24, 64, 63
24, 24, 25, 65, 64
25, 25, 26, 66, 65
26, 26, 27, 67, 66
27, 27, 28, 68, 67
28, 28, 29, 69, 68
29, 29, 30, 70, 69
30, 30, 31, 71, 70
31, 31, 32, 72, 71
32, 32, 33, 73, 72
33, 33, 34, 74, 73
34, 34, 35, 75, 74
35, 35, 36, 76, 75
36, 36, 37, 77, 76
37, 37, 38, 78, 77
38, 38, 39, 79, 78
39, 39, 40, 80, 79
40, 40, 1, 41, 80
41, 41, 42, 82, 81
42, 42, 43, 83, 82
43, 43, 44, 84, 83
44, 44, 45, 85, 84
45, 45, 46, 86, 85
46, 46, 47, 87, 86
47, 47, 48, 88, 87
48, 48, 49, 89, 88
49, 49, 50, 90, 89
50, 50, 51, 91, 90
51, 51, 52, 92, 91
52, 52, 53, 93, 92
53, 53, 54, 94, 93
54, 54, 55, 95, 94
55, 55, 56, 96, 95
56, 56, 57, 97, 96
57, 57, 58, 98, 97
58, 58, 59, 99, 98
59, 59, 60, 100, 99
60, 60, 61, 101, 100
61, 61, 62, 102, 101
62, 62, 63, 103, 102
63, 63, 64, 104, 103
64, 64, 65, 105, 104
65, 65, 66, 106, 105
66, 66, 67, 107, 106
67, 67, 68, 108, 107
68, 68, 69, 109, 108
69, 69, 70, 110, 109
70, 70, 71, 111, 110
71, 71, 72, 112, 111
72, 72, 73, 113, 112
73, 73, 74, 114, 113
74, 74, 75, 115, 114
75, 75, 76, 116, 115
76, 76, 77, 117, 116
77, 77, 78, 118, 117
78, 78, 79, 119, 118
79, 79, 80, 120, 119
80, 80, 41, 81, 120
81, 81, 82, 122, 121
82, 82, 83, 123, 122
83, 83, 84, 124, 123
84, 84, 85, 125, 124
85, 85, 86, 126, 125
86, 86, 87, 127, 126
87, 87, 88, 128, 127
88, 88, 89, 129, 128
89, 89, 90, 130, 129
90, 90, 91, 131, 130
91, 91, 92, 132, 131
92, 92, 93, 133, 132
93, 93, 94, 134, 133
94, 94, 95, 135, 134
95, 95, 96, 136, 135
96, 96, 97, 137, 136
97, 97, 98, 138, 137
98, 98, 99, 139, 138
99, 99, 100, 140, 139
100, 100, 101, 141, 140
101, 101, 102, 142, 141
102, 102, 103, 143, 142
103, 103, 104, 144, 143
104, 104, 105, 145, 144
105, 105, 106, 146, 145
106, 106, 107, 147, 146
107, 107, 108, 148, 147
108, 108, 109, 149, 148
109, 109, 110, 150, 149
110, 110, 111, 151, 150
111, 111, 112, 152, 151
112, 112, 113, 153, 152
113, 113, 114, 154, 153
114, 114, 115, 155, 154
115, 115, 116, 156, 155
116, 116, 117, 157, 156
117, 117, 118, 158, 157
118, 118, 119, 159, 158
119, 119, 120, 160, 159
120, 120, 81, 121, 160
121, 121, 122, 162, 161
122, 122, 123, 163, 162
123, 123, 124, 164, 163
124, 124, 125, 165, 164
125, 125, 126, 166, 165
126, 126, 127, 167, 166
127, 127, 128, 168, 167
128, 128, 129, 169, 168
129, 129, 130, 170, 169
130, 130, 131, 171, 170
131, 131, 132, 172, 171
132, 132, 133, 173, 172
133, 133, 134, 174, 173
134, 134, 135, 175, 174
135, 135, 136, 176, 175
136, 136, 137, 177, 176
137, 137, 138, 178, 177
138, 138, 139, 179, 178
139, 139, 140, 180, 179
140, 140, 141, 181, 180
141, 141, 142, 182, 181
142, 142, 143, 183, 182
143, 143, 144, 184, 183
144, 144, 145, 185, 184
145, 145, 146, 186, 185
146, 146, 147, 187, 186
147, 147, 148, 188, 187
148, 148, 149, 189, 188
149, 149, 150, 190, 189
150, 150, 151, 191, 190
151, 151, 152, 192, 191
152, 152, 153, 193, 192
153, 153, 154, 194, 193
154, 154, 155, 195, 194
155, 155, 156, 196, 195
156, 156, 157, 197, 196
157, 157, 158, 198, 197
158, 158, 159, 199, 198
159, 159, 160, 200, 199
160, 160, 121, 161, 200
161, 161, 162, 202, 201
162, 162, 163, 203, 202
163, 163, 164, 204, 203
164, 164, 165, 205, 204
165, 165, 166, 206, 205
166, 166, 167, 207, 206
167, 167, 168, 208, 207
168, 168, 169, 209, 208
169, 169, 170, 210, 209
170, 170, 171, 211, 210
171, 171, 172, 212, 211
172, 172, 173, 213, 212
173, 173, 174, 214, 213
174, 174, 175, 215, 214
175, 175, 176, 216, 215
176, 176, 177, 217, 216
177, 177, 178, 218, 217
178, 178, 179, 219, 218
179, 179, 180, 220, 219
180, 180, 181, 221, 220
181, 181, 182, 222, 221
182, 182, 183, 223, 222
183, 183, 184, 224, 223
184, 184, 185, 225, 224
185, 185, 186, 226, 225
186, 186, 187, 227, 226
187, 187, 188, 228, 227
188, 188, 189, 229, 228
189, 189, 190, 230, 229
190, 190, 191, 231, 230
191, 191, 192, 232, 231
192, 192, 193, 233, 232
193, 193, 194, 234, 233
194, 194, 195, 235, 234
195, 195, 196, 236, 235
196, 196, 197, 237, 236
197, 197, 198, 238, 237
198, 198, 199, 239, 238
199, 199, 200, 240, 239
200, 200, 161, 201, 240
201, 201, 202, 242, 241
202, 202, 203, 243, 242
203, 203, 204, 244, 243
204, 204, 205, 245, 244
205, 205, 206, 246, 245
206, 206, 207, 247, 246
207, 207, 208, 248, 247
208, 208, 209, 249, 248
209, 209, 210, 250, 249
210, 210, 211, 251, 250
211, 211, 212, 252, 251
212, 212, 213, 253, 252
213, 213, 214, 254, 253
214, 214, 215, 255, 254
215, 215, 216, 256, 255
216, 216, 217, 257, 256
217, 217, 218, 258, 257
218, 218, 219, 259, 258
219, 219, 220, 260, 259
220, 220, 221, 261, 260
221, 221, 222, 262, 261
222, 222, 223, 263, 262
223, 223, 224, 264, 263
224, 224, 225, 265, 264
225, 225, 226, 266, 265
226, 226, 227, 267, 266
227, 227, 228, 268, 267
228, 228, 229, 269, 268
229, 229, 230, 270, 269
230, 230, 231, 271, 270
231, 231, 232, 272, 271
232, 232, 233, 273, 272
233, 233, 234, 274, 273
234, 234, 235, 275, 274
235, 235, 236, 276, 275
236, 236, 237, 277, 276
237, 237, 238, 278, 277
238, 238, 239, 279, 278
239, 239, 240, 280, 279
240, 240, 201, 241, 280
241, 241, 242, 282, 281
242, 242, 243, 283, 282
243, 243, 244, 284, 283
244, 244, 245, 285, 284
245, 245, 246, 286, 285
246, 246, 247, 287, 286
247, 247, 248, 288, 287
248, 248, 249, 289, 288
249, 249, 250, 290, 289
250, 250, 251, 291, 290
251, 251, 252, 292, 291
252, 252, 253, 293, 292
253, 253, 254, 294, 293
254, 254, 255, 295, 294
255, 255, 256, 296, 295
256, 256, 257, 297, 296
257, 257, 258, 298, 297
258, 258, 259, 299, 298
259, 259, 260, 300, 299
260, 260, 261, 301, 300
261, 261, 262, 302, 301
262, 262, 263, 303, 302
263, 263, 264, 304, 303
264, 264, 265, 305, 304
265, 265, 266, 306, 305
266, 266, 267, 307, 306
267, 267, 268, 308, 307
268, 268, 269, 309, 308
269, 269, 270, 310, 309
270, 270, 271, 311, 310
271, 271, 272, 312, 311
272, 272, 273, 313, 312
273, 273, 274, 314, 313
274, 274, 275, 315, 314
275, 275, 276, 316, 315
276, 276, 277, 317, 316
277, 277, 278, 318, 317
278, 278, 279, 319, 318
279, 279, 280, 320, 319
280, 280, 241, 281, 320
281, 281, 282, 322, 321
282, 282, 283, 323, 322
283, 283, 284, 324, 323
284, 284, 285, 325, 324
285, 285, 286, 326, 325
286, 286, 287, 327, 326
287, 287, 288, 328, 327
288, 288, 289, 329, 328
289, 289, 290, 330, 329
290, 290, 291, 331, 330
291, 291, 292, 332, 331
292, 292, 293, 333, 332
293, 293, 294, 334, 333
294, 294, 295, 335, 334
295, 295, 296, 336, 335
296, 296, 297, 337, 336
297, 297, 298, 338, 337
298, 298, 299, 339, 338
299, 299, 300, 340, 339
300, 300, 301, 341, 340
301, 301, 302, 342, 341
302, 302, 303, 343, 342
303, 303, 304, 344, 343
304, 304, 305, 345, 344
305, 305, 306, 346, 345
306, 306, 307, 347, 346
307, 307, 308, 348, 347
308, 308, 309, 349, 348
309, 309, 310, 350, 349
310, 310, 311, 351, 350
311, 311, 312, 352, 351
312, 312, 313, 353, 352
313, 313, 314, 354, 353
314, 314, 315, 355, 354
315, 315, 316, 356, 355
316, 316, 317, 357, 356
317, 317, 318, 358, 357
318, 318, 319, 359, 358
319, 319, 320, 360, 359
320, 320, 281, 321, 360
321, 321, 322, 362, 361
322, 322, 323, 363, 362
323, 323, 324, 364, 363
324, 324, 325, 365, 364
325, 325, 326, 366, 365
326, 326, 327, 367, 366
327, 327, 328, 368, 367
328, 328, 329, 369, 368
329, 329, 330, 370, 369
330, 330, 331, 371, 370
331, 331, 332, 372, 371
332, 332, 333, 373, 372
333, 333, 334, 374, 373
334, 334, 335, 375, 374
335, 335, 336, 376, 375
336, 336, 337, 377, 376
337, 337, 338, 378, 377
338, 338, 339, 379, 378
339, 339, 340, 380, 379
340, 340, 341, 381, 380
341, 341, 342, 382, 381
342, 342, 343, 383, 382
343, 343, 344, 384, 383
344, 344, 345, 385, 384
345, 345, 346, 386, 385
346, 346, 347, 387, 386
347, 347, 348, 388, 387
348, 348, 349, 389, 388
349, 349, 350, 390, 389
350, 350, 351, 391, 390
351, 351, 352, 392, 391
352, 352, 353, 393, 392
353, 353, 354, 394, 393
354, 354, 355, 395, 394
355, 355, 356, 396, 395
356, 356, 357, 397, 396
357, 357, 358, 398, 397
358, 358, 359, 399, 398
359, 359, 360, 400, 399
360, 360, 321, 361, 400
361, 361, 362, 402, 401
362, 362, 363, 403, 402
363, 363, 364, 404, 403
364, 364, 365, 405, 404
365, 365, 366, 406, 405
366, 366, 367, 407, 406
367, 367, 368, 408, 407
368, 368, 369, 409, 408
369, 369, 370, 410, 409
370, 370, 371, 411, 410
371, 371, 372, 412, 411
372, 372, 373, 413, 412
373, 373, 374, 414, 413
374, 374, 375, 415, 414
375, 375, 376, 416, 415
376, 376, 377, 417, 416
377, 377, 378, 418, 417
378, 378, 379, 419, 418
379, 379, 380, 420, 419
380, 380, 381, 421, 420
381, 381, 382, 422, 421
382, 382, 383, 423, 422
383, 383, 384, 424, 423
384, 384, 385, 425, 424
385, 385, 386, 426, 425
386, 386, 387, 427, 426
387, 387, 388, 428, 427
388, 388, 389, 429, 428
389, 389, 390, 430, 429
390, 390, 391, 431, 430
391, 391, 392, 432, 431
392, 392, 393, 433, 432
393, 393, 394, 434, 433
394, 394, 395, 435, 434
395, 395, 396, 436, 435
396, 396, 397, 437, 436
397, 397, 398, 438, 437
398, 398, 399, 439, 438
399, 399, 400, 440, 439
400, 400, 361, 401, 440
401, 401, 402, 442, 441
402, 402, 403, 443, 442
403, 403, 404, 444, 443
404, 404, 405, 445, 444
405, 405, 406, 446, 445
406, 406, 407, 447, 446
407, 407, 408, 448, 447
408, 408, 409, 449, 448
409, 409, 410, 450, 449
410, 410, 411, 451, 450
411, 411, 412, 452, 451
412, 412, 413, 453, 452
413, 413, 414, 454, 453
414, 414, 415, 455, 454
415, 415, 416, 456, 455
416, 416, 417, 457, 456
417, 417, 418, 458, 457
418, 418, 419, 459, 458
419, 419, 420, 460, 459
420, 420, 421, 461, 460
421, 421, 422, 462, 461
422, 422, 423, 463, 462
423, 423, 424, 464, 463
424, 424, 425, 465, 464
425, 425, 426, 466, 465
426, 426, 427, 467, 466
427, 427, 428, 468, 467
428, 428, 429, 469, 468
429, 429, 430, 470, 469
430, 430, 431, 471, 470
431, 431, 432, 472, 471
432, 432, 433, 473, 472
433, 433, 434, 474, 473
434, 434, 435, 475, 474
435, 435, 436, 476, 475
436, 436, 437, 477, 476
437, 437, 438, 478, 477
438, 438, 439, 479, 478
439, 439, 440, 480, 479
440, 440, 401, 441, 480
441, 441, 442, 482, 481
442, 442, 443, 483, 482
443, 443, 444, 484, 483
444, 444, 445, 485, 484
445, 445, 446, 486, 485
446, 446, 447, 487, 486
447, 447, 448, 488, 487
448, 448, 449, 489, 488
449, 449, 450, 490, 489
450, 450, 451, 491, 490
451, 451, 452, 492, 491
452, 452, 453, 493, 492
453, 453, 454, 494, 493
454, 454, 455, 495, 494
455, 455, 456, 496, 495
456, 456, 457, 497, 496
457, 457, 458, 498, 497
458, 458, 459, 499, 498
459, 459, 460, 500, 499
460, 460, 461, 501, 500
461, 461, 462, 502, 501
462, 462, 463, 503, 502
463, 463, 464, 504, 503
464, 464, 465, 505, 504
465, 465, 466, 506, 505
466, 466, 467, 507, 506
467, 467, 468, 508, 507
468, 468, 469, 509, 508
469, 469, 470, 510, 509
470, 470, 471, 511, 510
471, 471, 472, 512, 511
472, 472, 473, 513, 512
473, 473, 474, 514, 513
474, 474, 475, 515, 514
475, 475, 476, 516, 515
476, 476, 477, 517, 516
477, 477, 478, 518, 517
478, 478, 479, 519, 518
479, 479, 480, 520, 519
480, 480, 441, 481, 520
481, 481, 482, 522, 521
482, 482, 483, 523, 522
483, 483, 484, 524, 523
484, 484, 485, 525, 524
485, 485, 486, 526, 525
486, 486, 487, 527, 526
487, 487, 488, 528, 527
488, 488, 489, 529, 528
489, 489, 490, 530, 529
490, 490, 491, 531, 530
491, 491, 492, 532, 531
492, 492, 493, 533, 532
493, 493, 494, 534, 533
494, 494, 495, 535, 534
495, 495, 496, 536, 535
496, 496, 497, 537, 536
497, 497, 498, 538, 537
498, 498, 499, 539, 538
499, 499, 500, 540, 539
500, 500, 501, 541, 540
501, 501, 502, 542, 541
502, 502, 503, 543, 542
503, 503, 504, 544, 543
504, 504, 505, 545, 544
505, 505, 506, 546, 545
506, 506, 507, 547, 546
507, 507, 508, 548, 547
508, 508, 509, 549, 548
509, 509, 510, 550, 549
510, 510, 511, 551, 550
511, 511, 512, 552, 551
512, 512, 513, 553, 552
513, 513, 514, 554, 553
514, 514, 515, 555, 554
515, 515, 516, 556, 555
516, 516, 517, 557, 556
517, 517, 518, 558, 557
518, 518, 519, 559, 558
519, 519, 520, 560, 559
520, 520, 481, 521, 560
521, 521, 522, 562, 561
522, 522, 523, 563, 562
523, 523, 524, 564, 563
524, 524, 525, 565, 564
525, 525, 526, 566, 565
526, 526, 527, 567, 566
527, 527, 528, 568, 567
528, 528, 529, 569, 568
529, 529, 530, 570, 569
530, 530, 531, 571, 570
531, 531, 532, 572, 571
532, 532, 533, 573, 572
533, 533, 534, 574, 573
534, 534, 535, 575, 574
535, 535, 536, 576, 575
536, 536, 537, 577, 576
537, 537, 538, 578, 577
538, 538, 539, 579, 578
539, 539, 540, 580, 579
540, 540, 541, 581, 580
541, 541, 542, 582, 581
542, 542, 543, 583, 582
543, 543, 544, 584, 583
544, 544, 545, 585, 584
545, 545, 546, 586, 585
546, 546, 547, 587, 586
547, 547, 548, 588, 587
548, 548, 549, 589, 588
549, 549, 550, 590, 589
550, 550, 551, 591, 590
551, 551, 552, 592, 591
552, 552, 553, 593, 592
553, 553, 554, 594, 593
554, 554, 555, 595, 594
555, 555, 556, 596, 595
556, 556, 557, 597, 596
557, 557, 558, 598, 597
558, 558, 559, 599, 598
559, 559, 560, 600, 599
560, 560, 521, 561, 600
561, 561, 562, 602, 601
562, 562, 563, 603, 602
563, 563, 564, 604, 603
564, 564, 565, 605, 604
565, 565, 566, 606, 605
566, 566, 567, 607, 606
567, 567, 568, 608, 607
568, 568, 569, 609, 608
569, 569, 570, 610, 609
570, 570, 571, 611, 610
571, 571, 572, 612, 611
572, 572, 573, 613, 612
573, 573, 574, 614, 613
574, 574, 575, 615, 614
575, 575, 576, 616, 615
576, 576, 577, 617, 616
577, 577, 578, 618, 617
578, 578, 579, 619, 618
579, 579, 580, 620, 619
580, 580, 581, 621, 620
581, 581, 582, 622, 621
582, 582, 583, 623, 622
583, 583, 584, 624, 623
584, 584, 585, 625, 624
585, 585, 586, 626, 625
586, 586, 587, 627, 626
587, 587, 588, 628, 627
588, 588, 589, 629, 628
589, 589, 590, 630, 629
590, 590, 591, 631, 630
591, 591, 592, 632, 631
592, 592, 593, 633, 632
593, 593, 594, 634, 633
594, 594, 595, 635, 634
595, 595, 596, 636, 635
596, 596, 597, 637, 636
597, 597, 598, 638, 637
598, 598, 599, 639, 638
599, 599, 600, 640, 639
600, 600, 561, 601, 640
601, 601, 602, 642, 641
602, 602, 603, 643, 642
603, 603, 604, 644, 643
604, 604, 605, 645, 644
605, 605, 606, 646, 645
606, 606, 607, 647, 646
607, 607, 608, 648, 647
608, 608, 609, 649, 648
609, 609, 610, 650, 649
610, 610, 611, 651, 650
611, 611, 612, 652, 651
612, 612, 613, 653, 652
613, 613, 614, 654, 653
614, 614, 615, 655, 654
615, 615, 616, 656, 655
616, 616, 617, 657, 656
617, 617, 618, 658, 657
618, 618, 619, 659, 658
619, 619, 620, 660, 659
620, 620, 621, 661, 660
621, 621, 622, 662, 661
622, 622, 623, 663, 662
623, 623, 624, 664, 663
624, 624, 625, 665, 664
625, 625, 626, 666, 665
626, 626, 627, 667, 666
627, 627, 628, 668, 667
628, 628, 629, 669, 668
629, 629, 630, 670, 669
630, 630, 631, 671, 670
631, 631, 632, 672, 671
632, 632, 633, 673, 672
633, 633, 634, 674, 673
634, 634, 635, 675, 674
635, 635, 636, 676, 675
636, 636, 637, 677, 676
637, 637, 638, 678, 677
638, 638, 639, 679, 678
639, 639, 640, 680, 679
640, 640, 601, 641, 680
641, 641, 642, 682, 681
642, 642, 643, 683, 682
643, 643, 644, 684, 683
644, 644, 645, 685, 684
645, 645, 646, 686, 685
646, 646, 647, 687, 686
647, 647, 648, 688, 687
648, 648, 649, 689, 688
649, 649, 650, 690, 689
650, 650, 651, 691, 690
651, 651, 652, 692, 691
652, 652, 653, 693, 692
653, 653, 654, 694, 693
654, 654, 655, 695, 694
655, 655, 656, 696, 695
656, 656, 657, 697, 696
657, 657, 658, 698, 697
658, 658, 659, 699, 698
659, 659, 660, 700, 699
660, 660, 661, 701, 700
661, 661, 662, 702, 701
662, 662, 663, 703, 702
663, 663, 664, 704, 703
664, 664, 665, 705, 704
665, 665, 666, 706, 705
666, 666, 667, 707, 706
667, 667, 668, 708, 707
668, 668, 669, 709, 708
669, 669, 670, 710, 709
670, 670, 671, 711, 710
671, 671, 672, 712, 711
672, 672, 673, 713, 712
673, 673, 674, 714, 713
674, 674, 675, 715, 714
675, 675, 676, 716, 715
676, 676, 677, 717, 716
677, 677, 678, 718, 717
678, 678, 679, 719, 718
679, 679, 680, 720, 719
680, 680, 641, 681, 720
681, 681, 682, 722, 721
682, 682, 683, 723, 722
683, 683, 684, 724, 723
684, 684, 685, 725, 724
685, 685, 686, 726, 725
686, 686, 687, 727, 726
687, 687, 688, 728, 727
688, 688, 689, 729, 728
689, 689, 690, 730, 729
690, 690, 691, 731, 730
691, 691, 692, 732, 731
692, 692, 693, 733, 732
693, 693, 694, 734, 733
694, 694, 695, 735, 734
695, 695, 696, 736, 735
696, 696, 697, 737, 736
697, 697, 698, 738, 737
698, 698, 699, 739, 738
699, 699, 700, 740, 739
700, 700, 701, 741, 740
701, 701, 702, 742, 741
702, 702, 703, 743, 742
703, 703, 704, 744, 743
704, 704, 705, 745, 744
705, 705, 706, 746, 745
706, 706, 707, 747, 746
707, 707, 708, 748, 747
708, 708, 709, 749, 748
709, 709, 710, 750, 749
710, 710, 711, 751, 750
711, 711, 712, 752, 751
712, 712, 713, 753, 752
713, 713, 714, 754, 753
714, 714, 715, 755, 754
715, 715, 716, 756, 755
716, 716, 717, 757, 756
717, 717, 718, 758, 757
718, 718, 719, 759, 758
719, 719, 720, 760, 759
720, 720, 681, 721, 760
721, 721, 722, 762, 761
722, 722, 723, 763, 762
723, 723, 724, 764, 763
724, 724, 725, 765, 764
725, 725, 726, 766, 765
726, 726, 727, 767, 766
727, 727, 728, 768, 767
728, 728, 729, 769, 768
729, 729, 730, 770, 769
730, 730, 731, 771, 770
731, 731, 732, 772, 771
732, 732, 733, 773, 772
733, 733, 734, 774, 773
734, 734, 735, 775, 774
735, 735, 736, 776, 775
736, 736, 737, 777, 776
737, 737, 738, 778, 777
738, 738, 739, 779, 778
739, 739, 740, 780, 779
740, 740, 741, 781, 780
741, 741, 742, 782, 781
742, 742, 743, 783, 782
743, 743, 744, 784, 783
744, 744, 745, 785, 784
745, 745, 746, 786, 785
746, 746, 747, 787, 786
747, 747, 748, 788, 787
748, 748, 749, 789, 788
749, 749, 750, 790, 789
750, 750, 751, 791, 790
751, 751, 752, 792, 791
752, 752, 753, 793, 792
753, 753, 754, 794, 793
754, 754, 755, 795, 794
755, 755, 756, 796, 795
756, 756, 757, 797, 796
757, 757, 758, 798, 797
758, 758, 759, 799, 798
759, 759, 760, 800, 799
760, 760, 721, 761, 800
761, 761, 762, 802, 801
762, 762, 763, 803, 802
763, 763, 764, 804, 803
764, 764, 765, 805, 804
765, 765, 766, 806, 805
766, 766, 767, 807, 806
767, 767, 768, 808, 807
768, 768, 769, 809, 808
769, 769, 770, 810, 809
770, 770, 771, 811, 810
771, 771, 772, 812, 811
772, 772, 773, 813, 812
773, 773, 774, 814, 813
774, 774, 775, 815, 814
775, 775, 776, 816, 815
776, 776, 777, 817, 816
777, 777, 778, 818, 817
778, 778, 779, 819, 818
779, 779, 780, 820, 819
780, 780, 781, 821, 820
781, 781, 782, 822, 821
782, 782, 783, 823, 822
783, 783, 784, 824, 823
784, 784, 785, 825, 824
785, 785, 786, 826, 825
786, 786, 787, 827, 826
787, 787, 788, 828, 827
788, 788, 789, 829, 828
789, 789, 790, 830, 829
790, 790, 791, 831, 830
791, 791, 792, 832, 831
792, 792, 793, 833, 832
793, 793, 794, 834, 833
794, 794, 795, 835, 834
795, 795, 796, 836, 835
796, 796, 797, 837, 836
797, 797, 798, 838, 837
798, 798, 799, 839, 838
799, 799, 800, 840, 839
800, 800, 761, 801, 840
801, 801, 802, 842, 841
802, 802, 803, 843, 842
803, 803, 804, 844, 843
804, 804, 805, 845, 844
805, 805, 806, 846, 845
806, 806, 807, 847, 846
807, 807, 808, 848, 847
808, 808, 809, 849, 848
809, 809, 810, 850, 849
810, 810, 811, 851, 850
811, 811, 812, 852, 851
812, 812, 813, 853, 852
813, 813, 814, 854, 853
814, 814, 815, 855, 854
815, 815, 816, 856, 855
816, 816, 817, 857, 856
817, 817, 818, 858, 857
818, 818, 819, 859, 858
819, 819, 820, 860, 859
820, 820, 821, 861, 860
821, 821, 822, 862, 861
822, 822, 823, 863, 862
823, 823, 824, 864, 863
824, 824, 825, 865, 864
825, 825, 826, 866, 865
826, 826, 827, 867, 866
827, 827, 828, 868, 867
828, 828, 829, 869, 868
829, 829, 830, 870, 869
830, 830, 831, 871, 870
831, 831, 832, 872, 871
832, 832, 833, 873, 872
833, 833, 834, 874, 873
834, 834, 835, 875, 874
835, 835, 836, 876, 875
836, 836, 837, 877, 876
837, 837, 838, 878, 877
838, 838, 839, 879, 878
839, 839, 840, 880, 879
840, 840, 801, 841, 880
841, 841, 842, 882, 881
842, 842, 843, 883, 882
843, 843, 844, 884, 883
844, 844, 845, 885, 884
845, 845, 846, 886, 885
846, 846, 847, 887, 886
847, 847, 848, 888, 887
848, 848, 849, 889, 888
849, 849, 850, 890, 889
850, 850, 851, 891, 890
851, 851, 852, 892, 891
852, 852, 853, 893, 892
853, 853, 854, 894, 893
854, 854, 855, 895, 894
855, 855, 856, 896, 895
856, 856, 857, 897, 896
857, 857, 858, 898, 897
858, 858, 859, 899, 898
859, 859, 860, 900, 899
860, 860, 861, 901, 900
861, 861, 862, 902, 901
862, 862, 863, 903, 902
863, 863, 864, 904, 903
864, 864, 865, 905, 904
865, 865, 866, 906, 905
866, 866, 867, 907, 906
867, 867, 868, 908, 907
868, 868, 869, 909, 908
869, 869, 870, 910, 909
870, 870, 871, 911, 910
871, 871, 872, 912, 911
872, 872, 873, 913, 912
873, 873, 874, 914, 913
874, 874, 875, 915, 914
875, 875, 876, 916, 915
876, 876, 877, 917, 916
877, 877, 878, 918, 917
878, 878, 879, 919, 918
879, 879, 880, 920, 919
880, 880, 841, 881, 920
881, 881, 882, 922, 921
882, 882, 883, 923, 922
883, 883, 884, 924, 923
884, 884, 885, 925, 924
885, 885, 886, 926, 925
886, 886, 887, 927, 926
887, 887, 888, 928, 927
888, 888, 889, 929, 928
889, 889, 890, 930, 929
890, 890, 891, 931, 930
891, 891, 892, 932, 931
892, 892, 893, 933, 932
893, 893, 894, 934, 933
894, 894, 895, 935, 934
895, 895, 896, 936, 935
896, 896, 897, 937, 936
897, 897, 898, 938, 937
898, 898, 899, 939, 938
899, 899, 900, 940, 939
900, 900, 901, 941, 940
901, 901, 902, 942, 941
902, 902, 903, 943, 942
903, 903, 904, 944, 943
904, 904, 905, 945, 944
905, 905, 906, 946, 945
906, 906, 907, 947, 946
907, 907, 908, 948, 947
908, 908, 909, 949, 948
909, 909, 910, 950, 949
910, 910, 911, 951, 950
911, 911, 912, 952, 951
912, 912, 913, 953, 952
913, 913, 914, 954, 953
914, 914, 915, 955, 954
915, 915, 916, 956, 955
916, 916, 917, 957, 956
917, 917, 918, 958, 957
918, 918, 919, 959, 958
919, 919, 920, 960, 959
920, 920, 881, 921, 960
921, 921, 922, 962, 961
922, 922, 923, 963, 962
923, 923, 924, 964, 963
924, 924, 925, 965, 964
925, 925, 926, 966, 965
926, 926, 927, 967, 966
927, 927, 928, 968, 967
928, 928, 929, 969, 968
929, 929, 930, 970, 969
930, 930, 931, 971, 970
931, 931, 932, 972, 971
932, 932, 933, 973, 972
933, 933, 934, 974, 973
934, 934, 935, 975, 974
935, 935, 936, 976, 975
936, 936, 937, 977, 976
937, 937, 938, 978, 977
938, 938, 939, 979, 978
939, 939, 940, 980, 979
940, 940, 941, 981, 980
941, 941, 942, 982, 981
942, 942, 943, 983, 982
943, 943, 944, 984, 983
944, 944, 945, 985, 984
945, 945, 946, 986, 985
946, 946, 947, 987, 986
947, 947, 948, 988, 987
948, 948, 949, 989, 988
949, 949, 950, 990, 989
950, 950, 951, 991, 990
951, 951, 952, 992, 991
952, 952, 953, 993, 992
953, 953, 954, 994, 993
954, 954, 955, 995, 994
955, 955, 956, 996, 995
956, 956, 957, 997, 996
957, 957, 958, 998, 997
958, 958, 959, 999, 998
959, 959, 960, 1000, 999
960, 960, 921, 961, 1000
*NSET, NSET=NALL
1, 2, 3, 4, 5, 6, 7, 8, 9, 10, 11, 12, 13, 14, 15, 16
17, 18, 19, 20, 21, 22, 23, 24, 25, 26, 27, 28, 29, 30, 31, 32
33, 34, 35, 36, 37, 38, 39, 40, 41, 42, 43, 44, 45, 46, 47, 48
49, 50, 51, 52, 53, 54, 55, 56, 57, 58, 59, 60, 61, 62, 63, 64
65, 66, 67, 68, 69, 70, 71, 72, 73, 74, 75, 76, 77, 78, 79, 80
81, 82, 83, 84, 85, 86, 87, 88, 89, 90, 91, 92, 93, 94, 95, 96
97, 98, 99, 100, 101, 102, 103, 104, 105, 106, 107, 108, 109, 110, 111, 112
113, 114, 115, 116, 117, 118, 119, 120, 121, 122, 123, 124, 125, 126, 127, 128
129, 130, 131, 132, 133, 134, 135, 136, 137, 138, 139, 140, 141, 142, 143, 144
145, 146, 147, 148, 149, 150, 151, 152, 153, 154, 155, 156, 157, 158, 159, 160
161, 162, 163, 164, 165, 166, 167, 168, 169, 170, 171, 172, 173, 174, 175, 176
177, 178, 179, 180, 181, 182, 183, 184, 185, 186, 187, 188, 189, 190, 191, 192
193, 194, 195, 196, 197, 198, 199, 200, 201, 202, 203, 204, 205, 206, 207, 208
209, 210, 211, 212, 213, 214, 215, 216, 217, 218, 219, 220, 221, 222, 223, 224
225, 226, 227, 228, 229, 230, 231, 232, 233, 234, 235, 236, 237, 238, 239, 240
241, 242, 243, 244, 245, 246, 247, 248, 249, 250, 251, 252, 253, 254, 255, 256
257, 258, 259, 260, 261, 262, 263, 264, 265, 266, 267, 268, 269, 270, 271, 272
273, 274, 275, 276, 277, 278, 279, 280, 281, 282, 283, 284, 285, 286, 287, 288
289, 290, 291, 292, 293, 294, 295, 296, 297, 298, 299, 300, 301, 302, 303, 304
305, 306, 307, 308, 309, 310, 311, 312, 313, 314, 315, 316, 317, 318, 319, 320
321, 322, 323, 324, 325, 326, 327, 328, 329, 330, 331, 332, 333, 334, 335, 336
337, 338, 339, 340, 341, 342, 343, 344, 345, 346, 347, 348, 349, 350, 351, 352
353, 354, 355, 356, 357, 358, 359, 360, 361, 362, 363, 364, 365, 366, 367, 368
369, 370, 371, 372, 373, 374, 375, 376, 377, 378, 379, 380, 381, 382, 383, 384
385, 386, 387, 388, 389, 390, 391, 392, 393, 394, 395, 396, 397, 398, 399, 400
401, 402, 403, 404, 405, 406, 407, 408, 409, 410, 411, 412, 413, 414, 415, 416
417, 418, 419, 420, 421, 422, 423, 424, 425, 426, 427, 428, 429, 430, 431, 432
433, 434, 435, 436, 437, 438, 439, 440, 441, 442, 443, 444, 445, 446, 447, 448
449, 450, 451, 452, 453, 454, 455, 456, 457, 458, 459, 460, 461, 462, 463, 464
465, 466, 467, 468, 469, 470, 471, 472, 473, 474, 475, 476, 477, 478, 479, 480
481, 482, 483, 484, 485, 486, 487, 488, 489, 490, 491, 492, 493, 494, 495, 496
497, 498, 499, 500, 501, 502, 503, 504, 505, 506, 507, 508, 509, 510, 511, 512
513, 514, 515, 516, 517, 518, 519, 520, 521, 522, 523, 524, 525, 526, 527, 528
529, 530, 531, 532, 533, 534, 535, 536, 537, 538, 539, 540, 541, 542, 543, 544
545, 546, 547, 548, 549, 550, 551, 552, 553, 554, 555, 556, 557, 558, 559, 560
561, 562, 563, 564, 565, 566, 567, 568, 569, 570, 571, 572, 573, 574, 575, 576
577, 578, 579, 580, 581, 582, 583, 584, 585, 586, 587, 588, 589, 590, 591, 592
593, 594, 595, 596, 597, 598, 599, 600, 601, 602, 603, 604, 605, 606, 607, 608
609, 610, 611, 612, 613, 614, 615, 616, 617, 618, 619, 620, 621, 622, 623, 624
625, 626, 627, 628, 629, 630, 631, 632, 633, 634, 635, 636, 637, 638, 639, 640
641, 642, 643, 644, 645, 646, 647, 648, 649, 650, 651, 652, 653, 654, 655, 656
657, 658, 659, 660, 661, 662, 663, 664, 665, 666, 667, 668, 669, 670, 671, 672
673, 674, 675, 676, 677, 678, 679, 680, 681, 682, 683, 684, 685, 686, 687, 688
689, 690, 691, 692, 693, 694, 695, 696, 697, 698, 699, 700, 701, 702, 703, 704
705, 706, 707, 708, 709, 710, 711, 712, 713, 714, 715, 716, 717, 718, 719, 720
721, 722, 723, 724, 725, 726, 727, 728, 729, 730, 731, 732, 733, 734, 735, 736
737, 738, 739, 740, 741, 742, 743, 744, 745, 746, 747, 748, 749, 750, 751, 752
753, 754, 755, 756, 757, 758, 759, 760, 761, 762, 763, 764, 765, 766, 767, 768
769, 770, 771, 772, 773, 774, 775, 776, 777, 778, 779, 780, 781, 782, 783, 784
785, 786, 787, 788, 789, 790, 791, 792, 793, 794, 795, 796, 797, 798, 799, 800
801, 802, 803, 804, 805, 806, 807, 808, 809, 810, 811, 812, 813, 814, 815, 816
817, 818, 819, 820, 821, 822, 823, 824, 825, 826, 827, 828, 829, 830, 831, 832
833, 834, 835, 836, 837, 838, 839, 840, 841, 842, 843, 844, 845, 846, 847, 848
849, 850, 851, 852, 853, 854, 855, 856, 857, 858, 859, 860, 861, 862, 863, 864
865, 866, 867, 868, 869, 870, 871, 872, 873, 874, 875, 876, 877, 878, 879, 880
881, 882, 883, 884, 885, 886, 887, 888, 889, 890, 891, 892, 893, 894, 895, 896
897, 898, 899, 900, 901, 902, 903, 904, 905, 906, 907, 908, 909, 910, 911, 912
913, 914, 915, 916, 917, 918, 919, 920, 921, 922, 923, 924, 925, 926, 927, 928
929, 930, 931, 932, 933, 934, 935, 936, 937, 938, 939, 940, 941, 942, 943, 944
945, 946, 947, 948, 949, 950, 951, 952, 953, 954, 955, 956, 957, 958, 959, 960
961, 962, 963, 964, 965, 966, 967, 968, 969, 970, 971, 972, 973, 974, 975, 976
977, 978, 979, 980, 981, 982, 983, 984, 985, 986, 987, 988, 989, 990, 991, 992
993, 994, 995, 996, 997, 998, 999, 1000
*NSET, NSET=NBASE
1, 2, 3, 4, 5, 6, 7, 8, 9, 10, 11, 12, 13, 14, 15, 16
17, 18, 19, 20, 21, 22, 23, 24, 25, 26, 27, 28, 29, 30, 31, 32
33, 34, 35, 36, 37, 38, 39, 40
*NSET, NSET=NTOP
961, 962, 963, 964, 965, 966, 967, 968, 969, 970, 971, 972, 973, 974, 975, 976
977, 978, 979, 980, 981, 982, 983, 984, 985, 986, 987, 988, 989, 990, 991, 992
993, 994, 995, 996, 997, 998, 999, 1000
*ELSET, ELSET=WIND_SEC_01
1, 41, 81, 121, 161, 201, 241, 281, 321, 361, 401, 441, 481, 521, 561, 601
641, 681, 721, 761, 801, 841, 881, 921
*ELSET, ELSET=WIND_SEC_02
2, 42, 82, 122, 162, 202, 242, 282, 322, 362, 402, 442, 482, 522, 562, 602
642, 682, 722, 762, 802, 842, 882, 922
*ELSET, ELSET=WIND_SEC_03
3, 43, 83, 123, 163, 203, 243, 283, 323, 363, 403, 443, 483, 523, 563, 603
643, 683, 723, 763, 803, 843, 883, 923
*ELSET, ELSET=WIND_SEC_04
4, 44, 84, 124, 164, 204, 244, 284, 324, 364, 404, 444, 484, 524, 564, 604
644, 684, 724, 764, 804, 844, 884, 924
*ELSET, ELSET=WIND_SEC_05
5, 45, 85, 125, 165, 205, 245, 285, 325, 365, 405, 445, 485, 525, 565, 605
645, 685, 725, 765, 805, 845, 885, 925
*ELSET, ELSET=WIND_SEC_06
6, 46, 86, 126, 166, 206, 246, 286, 326, 366, 406, 446, 486, 526, 566, 606
646, 686, 726, 766, 806, 846, 886, 926
*ELSET, ELSET=WIND_SEC_07
7, 47, 87, 127, 167, 207, 247, 287, 327, 367, 407, 447, 487, 527, 567, 607
647, 687, 727, 767, 807, 847, 887, 927
*ELSET, ELSET=WIND_SEC_08
8, 48, 88, 128, 168, 208, 248, 288, 328, 368, 408, 448, 488, 528, 568, 608
648, 688, 728, 768, 808, 848, 888, 928
*ELSET, ELSET=WIND_SEC_09
9, 49, 89, 129, 169, 209, 249, 289, 329, 369, 409, 449, 489, 529, 569, 609
649, 689, 729, 769, 809, 849, 889, 929
*ELSET, ELSET=WIND_SEC_10
10, 50, 90, 130, 170, 210, 250, 290, 330, 370, 410, 450, 490, 530, 570, 610
650, 690, 730, 770, 810, 850, 890, 930
*ELSET, ELSET=WIND_SEC_11
11, 51, 91, 131, 171, 211, 251, 291, 331, 371, 411, 451, 491, 531, 571, 611
651, 691, 731, 771, 811, 851, 891, 931
*ELSET, ELSET=WIND_SEC_12
12, 52, 92, 132, 172, 212, 252, 292, 332, 372, 412, 452, 492, 532, 572, 612
652, 692, 732, 772, 812, 852, 892, 932
*ELSET, ELSET=WIND_SEC_13
13, 53, 93, 133, 173, 213, 253, 293, 333, 373, 413, 453, 493, 533, 573, 613
653, 693, 733, 773, 813, 853, 893, 933
*ELSET, ELSET=WIND_SEC_14
14, 54, 94, 134, 174, 214, 254, 294, 334, 374, 414, 454, 494, 534, 574, 614
654, 694, 734, 774, 814, 854, 894, 934
*ELSET, ELSET=WIND_SEC_15
15, 55, 95, 135, 175, 215, 255, 295, 335, 375, 415, 455, 495, 535, 575, 615
655, 695, 735, 775, 815, 855, 895, 935
*ELSET, ELSET=WIND_SEC_16
16, 56, 96, 136, 176, 216, 256, 296, 336, 376, 416, 456, 496, 536, 576, 616
656, 696, 736, 776, 816, 856, 896, 936
*ELSET, ELSET=WIND_SEC_17
17, 57, 97, 137, 177, 217, 257, 297, 337, 377, 417, 457, 497, 537, 577, 617
657, 697, 737, 777, 817, 857, 897, 937
*ELSET, ELSET=WIND_SEC_18
18, 58, 98, 138, 178, 218, 258, 298, 338, 378, 418, 458, 498, 538, 578, 618
658, 698, 738, 778, 818, 858, 898, 938
*ELSET, ELSET=WIND_SEC_19
19, 59, 99, 139, 179, 219, 259, 299, 339, 379, 419, 459, 499, 539, 579, 619
659, 699, 739, 779, 819, 859, 899, 939
*ELSET, ELSET=WIND_SEC_20
20, 60, 100, 140, 180, 220, 260, 300, 340, 380, 420, 460, 500, 540, 580, 620
660, 700, 740, 780, 820, 860, 900, 940
*ELSET, ELSET=WIND_SEC_21
21, 61, 101, 141, 181, 221, 261, 301, 341, 381, 421, 461, 501, 541, 581, 621
661, 701, 741, 781, 821, 861, 901, 941
*ELSET, ELSET=WIND_SEC_22
22, 62, 102, 142, 182, 222, 262, 302, 342, 382, 422, 462, 502, 542, 582, 622
662, 702, 742, 782, 822, 862, 902, 942
*ELSET, ELSET=WIND_SEC_23
23, 63, 103, 143, 183, 223, 263, 303, 343, 383, 423, 463, 503, 543, 583, 623
663, 703, 743, 783, 823, 863, 903, 943
*ELSET, ELSET=WIND_SEC_24
24, 64, 104, 144, 184, 224, 264, 304, 344, 384, 424, 464, 504, 544, 584, 624
664, 704, 744, 784, 824, 864, 904, 944
*ELSET, ELSET=WIND_SEC_25
25, 65, 105, 145, 185, 225, 265, 305, 345, 385, 425, 465, 505, 545, 585, 625
665, 705, 745, 785, 825, 865, 905, 945
*ELSET, ELSET=WIND_SEC_26
26, 66, 106, 146, 186, 226, 266, 306, 346, 386, 426, 466, 506, 546, 586, 626
666, 706, 746, 786, 826, 866, 906, 946
*ELSET, ELSET=WIND_SEC_27
27, 67, 107, 147, 187, 227, 267, 307, 347, 387, 427, 467, 507, 547, 587, 627
667, 707, 747, 787, 827, 867, 907, 947
*ELSET, ELSET=WIND_SEC_28
28, 68, 108, 148, 188, 228, 268, 308, 348, 388, 428, 468, 508, 548, 588, 628
668, 708, 748, 788, 828, 868, 908, 948
*ELSET, ELSET=WIND_SEC_29
29, 69, 109, 149, 189, 229, 269, 309, 349, 389, 429, 469, 509, 549, 589, 629
669, 709, 749, 789, 829, 869, 909, 949
*ELSET, ELSET=WIND_SEC_30
30, 70, 110, 150, 190, 230, 270, 310, 350, 390, 430, 470, 510, 550, 590, 630
670, 710, 750, 790, 830, 870, 910, 950
*ELSET, ELSET=WIND_SEC_31
31, 71, 111, 151, 191, 231, 271, 311, 351, 391, 431, 471, 511, 551, 591, 631
671, 711, 751, 791, 831, 871, 911, 951
*ELSET, ELSET=WIND_SEC_32
32, 72, 112, 152, 192, 232, 272, 312, 352, 392, 432, 472, 512, 552, 592, 632
672, 712, 752, 792, 832, 872, 912, 952
*ELSET, ELSET=WIND_SEC_33
33, 73, 113, 153, 193, 233, 273, 313, 353, 393, 433, 473, 513, 553, 593, 633
673, 713, 753, 793, 833, 873, 913, 953
*ELSET, ELSET=WIND_SEC_34
34, 74, 114, 154, 194, 234, 274, 314, 354, 394, 434, 474, 514, 554, 594, 634
674, 714, 754, 794, 834, 874, 914, 954
*ELSET, ELSET=WIND_SEC_35
35, 75, 115, 155, 195, 235, 275, 315, 355, 395, 435, 475, 515, 555, 595, 635
675, 715, 755, 795, 835, 875, 915, 955
*ELSET, ELSET=WIND_SEC_36
36, 76, 116, 156, 196, 236, 276, 316, 356, 396, 436, 476, 516, 556, 596, 636
676, 716, 756, 796, 836, 876, 916, 956
*ELSET, ELSET=WIND_SEC_37
37, 77, 117, 157, 197, 237, 277, 317, 357, 397, 437, 477, 517, 557, 597, 637
677, 717, 757, 797, 837, 877, 917, 957
*ELSET, ELSET=WIND_SEC_38
38, 78, 118, 158, 198, 238, 278, 318, 358, 398, 438, 478, 518, 558, 598, 638
678, 718, 758, 798, 838, 878, 918, 958
*ELSET, ELSET=WIND_SEC_39
39, 79, 119, 159, 199, 239, 279, 319, 359, 399, 439, 479, 519, 559, 599, 639
679, 719, 759, 799, 839, 879, 919, 959
*ELSET, ELSET=WIND_SEC_40
40, 80, 120, 160, 200, 240, 280, 320, 360, 400, 440, 480, 520, 560, 600, 640
680, 720, 760, 800, 840, 880, 920, 960
*MATERIAL, NAME=EquivalentReinforcedConcrete_C30_37
*ELASTIC
33000000000.000000, 0.200000
*DENSITY
2500.000000
*SHELL SECTION, ELSET=EALL, MATERIAL=EquivalentReinforcedConcrete_C30_37
0.200000
*BOUNDARY
NBASE, 1, 6
*STEP, NAME=STATIC_WIND, NLGEOM=NO
*STATIC
0.1, 1.0, 1e-05, 1.0
*DLOAD
EALL, GRAV, 9.810000, 0.000000, -1.000000, 0.000000
*OUTPUT, FIELD, FREQUENCY=1
*NODE OUTPUT, NSET=NALL
U
*NODE OUTPUT, NSET=NBASE
RF
*ELEMENT OUTPUT, ELSET=EALL
S, E
*END STEP
