*HEADING
** Task 7 generated input for S2 / BFGS (engineering_feasible)
*PREPRINT, ECHO=NO, MODEL=NO, HISTORY=NO, CONTACT=NO
*NODE
1, 39.300000, 0.000000, 0.000000
2, 36.308466, 0.000000, 15.039459
3, 27.789297, 0.000000, 27.789297
4, 15.039459, 0.000000, 36.308466
5, 0.000000, 0.000000, 39.300000
6, -15.039459, 0.000000, 36.308466
7, -27.789297, 0.000000, 27.789297
8, -36.308466, 0.000000, 15.039459
9, -39.300000, 0.000000, 0.000000
10, -36.308466, 0.000000, -15.039459
11, -27.789297, 0.000000, -27.789297
12, -15.039459, 0.000000, -36.308466
13, -0.000000, 0.000000, -39.300000
14, 15.039459, 0.000000, -36.308466
15, 27.789297, 0.000000, -27.789297
16, 36.308466, 0.000000, -15.039459
17, 31.828388, 3.600000, 0.000000
18, 29.405596, 3.600000, 12.180197
19, 22.506069, 3.600000, 22.506069
20, 12.180197, 3.600000, 29.405596
21, 0.000000, 3.600000, 31.828388
22, -12.180197, 3.600000, 29.405596
23, -22.506069, 3.600000, 22.506069
24, -29.405596, 3.600000, 12.180197
25, -31.828388, 3.600000, 0.000000
26, -29.405596, 3.600000, -12.180197
27, -22.506069, 3.600000, -22.506069
28, -12.180197, 3.600000, -29.405596
29, -0.000000, 3.600000, -31.828388
30, 12.180197, 3.600000, -29.405596
31, 22.506069, 3.600000, -22.506069
32, 29.405596, 3.600000, -12.180197
33, 26.866330, 7.300000, 0.000000
34, 24.821252, 7.300000, 10.281299
35, 18.997364, 7.300000, 18.997364
36, 10.281299, 7.300000, 24.821252
37, 0.000000, 7.300000, 26.866330
38, -10.281299, 7.300000, 24.821252
39, -18.997364, 7.300000, 18.997364
40, -24.821252, 7.300000, 10.281299
41, -26.866330, 7.300000, 0.000000
42, -24.821252, 7.300000, -10.281299
43, -18.997364, 7.300000, -18.997364
44, -10.281299, 7.300000, -24.821252
45, -0.000000, 7.300000, -26.866330
46, 10.281299, 7.300000, -24.821252
47, 18.997364, 7.300000, -18.997364
48, 24.821252, 7.300000, -10.281299
49, 23.608923, 10.900000, 0.000000
50, 21.811801, 10.900000, 9.034744
51, 16.694030, 10.900000, 16.694030
52, 9.034744, 10.900000, 21.811801
53, 0.000000, 10.900000, 23.608923
54, -9.034744, 10.900000, 21.811801
55, -16.694030, 10.900000, 16.694030
56, -21.811801, 10.900000, 9.034744
57, -23.608923, 10.900000, 0.000000
58, -21.811801, 10.900000, -9.034744
59, -16.694030, 10.900000, -16.694030
60, -9.034744, 10.900000, -21.811801
61, -0.000000, 10.900000, -23.608923
62, 9.034744, 10.900000, -21.811801
63, 16.694030, 10.900000, -16.694030
64, 21.811801, 10.900000, -9.034744
65, 21.431667, 14.600000, 0.000000
66, 19.800278, 14.600000, 8.201544
67, 15.154477, 14.600000, 15.154477
68, 8.201544, 14.600000, 19.800278
69, 0.000000, 14.600000, 21.431667
70, -8.201544, 14.600000, 19.800278
71, -15.154477, 14.600000, 15.154477
72, -19.800278, 14.600000, 8.201544
73, -21.431667, 14.600000, 0.000000
74, -19.800278, 14.600000, -8.201544
75, -15.154477, 14.600000, -15.154477
76, -8.201544, 14.600000, -19.800278
77, -0.000000, 14.600000, -21.431667
78, 8.201544, 14.600000, -19.800278
79, 15.154477, 14.600000, -15.154477
80, 19.800278, 14.600000, -8.201544
81, 20.244229, 18.200000, 0.000000
82, 18.703229, 18.200000, 7.747131
83, 14.314832, 18.200000, 14.314832
84, 7.747131, 18.200000, 18.703229
85, 0.000000, 18.200000, 20.244229
86, -7.747131, 18.200000, 18.703229
87, -14.314832, 18.200000, 14.314832
88, -18.703229, 18.200000, 7.747131
89, -20.244229, 18.200000, 0.000000
90, -18.703229, 18.200000, -7.747131
91, -14.314832, 18.200000, -14.314832
92, -7.747131, 18.200000, -18.703229
93, -0.000000, 18.200000, -20.244229
94, 7.747131, 18.200000, -18.703229
95, 14.314832, 18.200000, -14.314832
96, 18.703229, 18.200000, -7.747131
97, 19.879261, 21.900000, 0.000000
98, 18.366042, 21.900000, 7.607464
99, 14.056760, 21.900000, 14.056760
100, 7.607464, 21.900000, 18.366042
101, 0.000000, 21.900000, 19.879261
102, -7.607464, 21.900000, 18.366042
103, -14.056760, 21.900000, 14.056760
104, -18.366042, 21.900000, 7.607464
105, -19.879261, 21.900000, 0.000000
106, -18.366042, 21.900000, -7.607464
107, -14.056760, 21.900000, -14.056760
108, -7.607464, 21.900000, -18.366042
109, -0.000000, 21.900000, -19.879261
110, 7.607464, 21.900000, -18.366042
111, 14.056760, 21.900000, -14.056760
112, 18.366042, 21.900000, -7.607464
113, 20.329145, 25.500000, 0.000000
114, 18.781681, 25.500000, 7.779627
115, 14.374876, 25.500000, 14.374876
116, 7.779627, 25.500000, 18.781681
117, 0.000000, 25.500000, 20.329145
118, -7.779627, 25.500000, 18.781681
119, -14.374876, 25.500000, 14.374876
120, -18.781681, 25.500000, 7.779627
121, -20.329145, 25.500000, 0.000000
122, -18.781681, 25.500000, -7.779627
123, -14.374876, 25.500000, -14.374876
124, -7.779627, 25.500000, -18.781681
125, -0.000000, 25.500000, -20.329145
126, 7.779627, 25.500000, -18.781681
127, 14.374876, 25.500000, -14.374876
128, 18.781681, 25.500000, -7.779627
129, 21.606813, 29.100000, 0.000000
130, 19.962092, 29.100000, 8.268569
131, 15.278324, 29.100000, 15.278324
132, 8.268569, 29.100000, 19.962092
133, 0.000000, 29.100000, 21.606813
134, -8.268569, 29.100000, 19.962092
135, -15.278324, 29.100000, 15.278324
136, -19.962092, 29.100000, 8.268569
137, -21.606813, 29.100000, 0.000000
138, -19.962092, 29.100000, -8.268569
139, -15.278324, 29.100000, -15.278324
140, -8.268569, 29.100000, -19.962092
141, -0.000000, 29.100000, -21.606813
142, 8.268569, 29.100000, -19.962092
143, 15.278324, 29.100000, -15.278324
144, 19.962092, 29.100000, -8.268569
145, 23.892617, 32.800000, 0.000000
146, 22.073900, 32.800000, 9.143309
147, 16.894631, 32.800000, 16.894631
148, 9.143309, 32.800000, 22.073900
149, 0.000000, 32.800000, 23.892617
150, -9.143309, 32.800000, 22.073900
151, -16.894631, 32.800000, 16.894631
152, -22.073900, 32.800000, 9.143309
153, -23.892617, 32.800000, 0.000000
154, -22.073900, 32.800000, -9.143309
155, -16.894631, 32.800000, -16.894631
156, -9.143309, 32.800000, -22.073900
157, -0.000000, 32.800000, -23.892617
158, 9.143309, 32.800000, -22.073900
159, 16.894631, 32.800000, -16.894631
160, 22.073900, 32.800000, -9.143309
161, 27.400000, 36.500000, 0.000000
162, 25.314299, 36.500000, 10.485526
163, 19.374726, 36.500000, 19.374726
164, 10.485526, 36.500000, 25.314299
165, 0.000000, 36.500000, 27.400000
166, -10.485526, 36.500000, 25.314299
167, -19.374726, 36.500000, 19.374726
168, -25.314299, 36.500000, 10.485526
169, -27.400000, 36.500000, 0.000000
170, -25.314299, 36.500000, -10.485526
171, -19.374726, 36.500000, -19.374726
172, -10.485526, 36.500000, -25.314299
173, -0.000000, 36.500000, -27.400000
174, 10.485526, 36.500000, -25.314299
175, 19.374726, 36.500000, -19.374726
176, 25.314299, 36.500000, -10.485526
*ELEMENT, TYPE=S4R, ELSET=EALL
1, 1, 2, 18, 17
2, 2, 3, 19, 18
3, 3, 4, 20, 19
4, 4, 5, 21, 20
5, 5, 6, 22, 21
6, 6, 7, 23, 22
7, 7, 8, 24, 23
8, 8, 9, 25, 24
9, 9, 10, 26, 25
10, 10, 11, 27, 26
11, 11, 12, 28, 27
12, 12, 13, 29, 28
13, 13, 14, 30, 29
14, 14, 15, 31, 30
15, 15, 16, 32, 31
16, 16, 1, 17, 32
17, 17, 18, 34, 33
18, 18, 19, 35, 34
19, 19, 20, 36, 35
20, 20, 21, 37, 36
21, 21, 22, 38, 37
22, 22, 23, 39, 38
23, 23, 24, 40, 39
24, 24, 25, 41, 40
25, 25, 26, 42, 41
26, 26, 27, 43, 42
27, 27, 28, 44, 43
28, 28, 29, 45, 44
29, 29, 30, 46, 45
30, 30, 31, 47, 46
31, 31, 32, 48, 47
32, 32, 17, 33, 48
33, 33, 34, 50, 49
34, 34, 35, 51, 50
35, 35, 36, 52, 51
36, 36, 37, 53, 52
37, 37, 38, 54, 53
38, 38, 39, 55, 54
39, 39, 40, 56, 55
40, 40, 41, 57, 56
41, 41, 42, 58, 57
42, 42, 43, 59, 58
43, 43, 44, 60, 59
44, 44, 45, 61, 60
45, 45, 46, 62, 61
46, 46, 47, 63, 62
47, 47, 48, 64, 63
48, 48, 33, 49, 64
49, 49, 50, 66, 65
50, 50, 51, 67, 66
51, 51, 52, 68, 67
52, 52, 53, 69, 68
53, 53, 54, 70, 69
54, 54, 55, 71, 70
55, 55, 56, 72, 71
56, 56, 57, 73, 72
57, 57, 58, 74, 73
58, 58, 59, 75, 74
59, 59, 60, 76, 75
60, 60, 61, 77, 76
61, 61, 62, 78, 77
62, 62, 63, 79, 78
63, 63, 64, 80, 79
64, 64, 49, 65, 80
65, 65, 66, 82, 81
66, 66, 67, 83, 82
67, 67, 68, 84, 83
68, 68, 69, 85, 84
69, 69, 70, 86, 85
70, 70, 71, 87, 86
71, 71, 72, 88, 87
72, 72, 73, 89, 88
73, 73, 74, 90, 89
74, 74, 75, 91, 90
75, 75, 76, 92, 91
76, 76, 77, 93, 92
77, 77, 78, 94, 93
78, 78, 79, 95, 94
79, 79, 80, 96, 95
80, 80, 65, 81, 96
81, 81, 82, 98, 97
82, 82, 83, 99, 98
83, 83, 84, 100, 99
84, 84, 85, 101, 100
85, 85, 86, 102, 101
86, 86, 87, 103, 102
87, 87, 88, 104, 103
88, 88, 89, 105, 104
89, 89, 90, 106, 105
90, 90, 91, 107, 106
91, 91, 92, 108, 107
92, 92, 93, 109, 108
93, 93, 94, 110, 109
94, 94, 95, 111, 110
95, 95, 96, 112, 111
96, 96, 81, 97, 112
97, 97, 98, 114, 113
98, 98, 99, 115, 114
99, 99, 100, 116, 115
100, 100, 101, 117, 116
101, 101, 102, 118, 117
102, 102, 103, 119, 118
103, 103, 104, 120, 119
104, 104, 105, 121, 120
105, 105, 106, 122, 121
106, 106, 107, 123, 122
107, 107, 108, 124, 123
108, 108, 109, 125, 124
109, 109, 110, 126, 125
110, 110, 111, 127, 126
111, 111, 112, 128, 127
112, 112, 97, 113, 128
113, 113, 114, 130, 129
114, 114, 115, 131, 130
115, 115, 116, 132, 131
116, 116, 117, 133, 132
117, 117, 118, 134, 133
118, 118, 119, 135, 134
119, 119, 120, 136, 135
120, 120, 121, 137, 136
121, 121, 122, 138, 137
122, 122, 123, 139, 138
123, 123, 124, 140, 139
124, 124, 125, 141, 140
125, 125, 126, 142, 141
126, 126, 127, 143, 142
127, 127, 128, 144, 143
128, 128, 113, 129, 144
129, 129, 130, 146, 145
130, 130, 131, 147, 146
131, 131, 132, 148, 147
132, 132, 133, 149, 148
133, 133, 134, 150, 149
134, 134, 135, 151, 150
135, 135, 136, 152, 151
136, 136, 137, 153, 152
137, 137, 138, 154, 153
138, 138, 139, 155, 154
139, 139, 140, 156, 155
140, 140, 141, 157, 156
141, 141, 142, 158, 157
142, 142, 143, 159, 158
143, 143, 144, 160, 159
144, 144, 129, 145, 160
145, 145, 146, 162, 161
146, 146, 147, 163, 162
147, 147, 148, 164, 163
148, 148, 149, 165, 164
149, 149, 150, 166, 165
150, 150, 151, 167, 166
151, 151, 152, 168, 167
152, 152, 153, 169, 168
153, 153, 154, 170, 169
154, 154, 155, 171, 170
155, 155, 156, 172, 171
156, 156, 157, 173, 172
157, 157, 158, 174, 173
158, 158, 159, 175, 174
159, 159, 160, 176, 175
160, 160, 145, 161, 176
*NSET, NSET=NALL
1, 2, 3, 4, 5, 6, 7, 8, 9, 10, 11, 12, 13, 14, 15, 16
17, 18, 19, 20, 21, 22, 23, 24, 25, 26, 27, 28, 29, 30, 31, 32
33, 34, 35, 36, 37, 38, 39, 40, 41, 42, 43, 44, 45, 46, 47, 48
49, 50, 51, 52, 53, 54, 55, 56, 57, 58, 59, 60, 61, 62, 63, 64
65, 66, 67, 68, 69, 70, 71, 72, 73, 74, 75, 76, 77, 78, 79, 80
81, 82, 83, 84, 85, 86, 87, 88, 89, 90, 91, 92, 93, 94, 95, 96
97, 98, 99, 100, 101, 102, 103, 104, 105, 106, 107, 108, 109, 110, 111, 112
113, 114, 115, 116, 117, 118, 119, 120, 121, 122, 123, 124, 125, 126, 127, 128
129, 130, 131, 132, 133, 134, 135, 136, 137, 138, 139, 140, 141, 142, 143, 144
145, 146, 147, 148, 149, 150, 151, 152, 153, 154, 155, 156, 157, 158, 159, 160
161, 162, 163, 164, 165, 166, 167, 168, 169, 170, 171, 172, 173, 174, 175, 176
*NSET, NSET=NBASE
1, 2, 3, 4, 5, 6, 7, 8, 9, 10, 11, 12, 13, 14, 15, 16
*NSET, NSET=NTOP
161, 162, 163, 164, 165, 166, 167, 168, 169, 170, 171, 172, 173, 174, 175, 176
*ELSET, ELSET=WIND_SEC_01
1, 17, 33, 49, 65, 81, 97, 113, 129, 145
*ELSET, ELSET=WIND_SEC_02
2, 18, 34, 50, 66, 82, 98, 114, 130, 146
*ELSET, ELSET=WIND_SEC_03
3, 19, 35, 51, 67, 83, 99, 115, 131, 147
*ELSET, ELSET=WIND_SEC_04
4, 20, 36, 52, 68, 84, 100, 116, 132, 148
*ELSET, ELSET=WIND_SEC_05
5, 21, 37, 53, 69, 85, 101, 117, 133, 149
*ELSET, ELSET=WIND_SEC_06
6, 22, 38, 54, 70, 86, 102, 118, 134, 150
*ELSET, ELSET=WIND_SEC_07
7, 23, 39, 55, 71, 87, 103, 119, 135, 151
*ELSET, ELSET=WIND_SEC_08
8, 24, 40, 56, 72, 88, 104, 120, 136, 152
*ELSET, ELSET=WIND_SEC_09
9, 25, 41, 57, 73, 89, 105, 121, 137, 153
*ELSET, ELSET=WIND_SEC_10
10, 26, 42, 58, 74, 90, 106, 122, 138, 154
*ELSET, ELSET=WIND_SEC_11
11, 27, 43, 59, 75, 91, 107, 123, 139, 155
*ELSET, ELSET=WIND_SEC_12
12, 28, 44, 60, 76, 92, 108, 124, 140, 156
*ELSET, ELSET=WIND_SEC_13
13, 29, 45, 61, 77, 93, 109, 125, 141, 157
*ELSET, ELSET=WIND_SEC_14
14, 30, 46, 62, 78, 94, 110, 126, 142, 158
*ELSET, ELSET=WIND_SEC_15
15, 31, 47, 63, 79, 95, 111, 127, 143, 159
*ELSET, ELSET=WIND_SEC_16
16, 32, 48, 64, 80, 96, 112, 128, 144, 160
*MATERIAL, NAME=EquivalentReinforcedConcrete_C30_37
*ELASTIC
33000000000.000000, 0.200000
*DENSITY
2500.000000
*SHELL SECTION, ELSET=EALL, MATERIAL=EquivalentReinforcedConcrete_C30_37
0.200000
*BOUNDARY
NBASE, 1, 6
*STEP, NAME=STATIC_WIND, NLGEOM=NO
*STATIC
0.1, 1.0, 1e-05, 1.0
*DLOAD
EALL, GRAV, 9.810000, 0.000000, -1.000000, 0.000000
WIND_SEC_01, P, -441.353376
WIND_SEC_02, P, -374.161326
WIND_SEC_03, P, -250.006605
WIND_SEC_04, P, -87.790645
WIND_SEC_05, P, 87.790645
WIND_SEC_06, P, 250.006605
WIND_SEC_07, P, 281.250000
WIND_SEC_08, P, 281.250000
WIND_SEC_09, P, 281.250000
WIND_SEC_10, P, 281.250000
WIND_SEC_11, P, 250.006605
WIND_SEC_12, P, 87.790645
WIND_SEC_13, P, -87.790645
WIND_SEC_14, P, -250.006605
WIND_SEC_15, P, -374.161326
WIND_SEC_16, P, -441.353376
*OUTPUT, FIELD, FREQUENCY=1
*NODE OUTPUT, NSET=NALL
U
*NODE OUTPUT, NSET=NBASE
RF
*ELEMENT OUTPUT, ELSET=EALL
S, E
*END STEP
*STEP, NAME=BUCKLING, PERTURBATION
*BUCKLE, EIGENSOLVER=LANCZOS
5,
*DLOAD
EALL, GRAV, 9.810000, 0.000000, -1.000000, 0.000000
WIND_SEC_01, P, -441.353376
WIND_SEC_02, P, -374.161326
WIND_SEC_03, P, -250.006605
WIND_SEC_04, P, -87.790645
WIND_SEC_05, P, 87.790645
WIND_SEC_06, P, 250.006605
WIND_SEC_07, P, 281.250000
WIND_SEC_08, P, 281.250000
WIND_SEC_09, P, 281.250000
WIND_SEC_10, P, 281.250000
WIND_SEC_11, P, 250.006605
WIND_SEC_12, P, 87.790645
WIND_SEC_13, P, -87.790645
WIND_SEC_14, P, -250.006605
WIND_SEC_15, P, -374.161326
WIND_SEC_16, P, -441.353376
*OUTPUT, FIELD, FREQUENCY=1
*NODE OUTPUT, NSET=NALL
U
*END STEP
