*HEADING
** Task 7 generated input for S3 / BFGS (engineering_feasible)
*PREPRINT, ECHO=NO, MODEL=NO, HISTORY=NO, CONTACT=NO
*NODE
1, 39.300000, 0.000000, 0.000000
2, 38.816152, 0.000000, 6.147874
3, 37.376521, 0.000000, 12.144368
4, 35.016556, 0.000000, 17.841827
5, 31.794368, 0.000000, 23.099960
6, 27.789297, 0.000000, 27.789297
7, 23.099960, 0.000000, 31.794368
8, 17.841827, 0.000000, 35.016556
9, 12.144368, 0.000000, 37.376521
10, 6.147874, 0.000000, 38.816152
11, 0.000000, 0.000000, 39.300000
12, -6.147874, 0.000000, 38.816152
13, -12.144368, 0.000000, 37.376521
14, -17.841827, 0.000000, 35.016556
15, -23.099960, 0.000000, 31.794368
16, -27.789297, 0.000000, 27.789297
17, -31.794368, 0.000000, 23.099960
18, -35.016556, 0.000000, 17.841827
19, -37.376521, 0.000000, 12.144368
20, -38.816152, 0.000000, 6.147874
21, -39.300000, 0.000000, 0.000000
22, -38.816152, 0.000000, -6.147874
23, -37.376521, 0.000000, -12.144368
24, -35.016556, 0.000000, -17.841827
25, -31.794368, 0.000000, -23.099960
26, -27.789297, 0.000000, -27.789297
27, -23.099960, 0.000000, -31.794368
28, -17.841827, 0.000000, -35.016556
29, -12.144368, 0.000000, -37.376521
30, -6.147874, 0.000000, -38.816152
31, -0.000000, 0.000000, -39.300000
32, 6.147874, 0.000000, -38.816152
33, 12.144368, 0.000000, -37.376521
34, 17.841827, 0.000000, -35.016556
35, 23.099960, 0.000000, -31.794368
36, 27.789297, 0.000000, -27.789297
37, 31.794368, 0.000000, -23.099960
38, 35.016556, 0.000000, -17.841827
39, 37.376521, 0.000000, -12.144368
40, 38.816152, 0.000000, -6.147874
41, 35.524041, 1.825000, 0.000000
42, 35.086681, 1.825000, 5.557184
43, 33.785371, 1.825000, 10.977532
44, 31.652153, 1.825000, 16.127577
45, 28.739553, 1.825000, 20.880508
46, 25.119291, 1.825000, 25.119291
47, 20.880508, 1.825000, 28.739553
48, 16.127577, 1.825000, 31.652153
49, 10.977532, 1.825000, 33.785371
50, 5.557184, 1.825000, 35.086681
51, 0.000000, 1.825000, 35.524041
52, -5.557184, 1.825000, 35.086681
53, -10.977532, 1.825000, 33.785371
54, -16.127577, 1.825000, 31.652153
55, -20.880508, 1.825000, 28.739553
56, -25.119291, 1.825000, 25.119291
57, -28.739553, 1.825000, 20.880508
58, -31.652153, 1.825000, 16.127577
59, -33.785371, 1.825000, 10.977532
60, -35.086681, 1.825000, 5.557184
61, -35.524041, 1.825000, 0.000000
62, -35.086681, 1.825000, -5.557184
63, -33.785371, 1.825000, -10.977532
64, -31.652153, 1.825000, -16.127577
65, -28.739553, 1.825000, -20.880508
66, -25.119291, 1.825000, -25.119291
67, -20.880508, 1.825000, -28.739553
68, -16.127577, 1.825000, -31.652153
69, -10.977532, 1.825000, -33.785371
70, -5.557184, 1.825000, -35.086681
71, -0.000000, 1.825000, -35.524041
72, 5.557184, 1.825000, -35.086681
73, 10.977532, 1.825000, -33.785371
74, 16.127577, 1.825000, -31.652153
75, 20.880508, 1.825000, -28.739553
76, 25.119291, 1.825000, -25.119291
77, 28.739553, 1.825000, -20.880508
78, 31.652153, 1.825000, -16.127577
79, 33.785371, 1.825000, -10.977532
80, 35.086681, 1.825000, -5.557184
81, 31.748083, 3.650000, 0.000000
82, 31.357211, 3.650000, 4.966494
83, 30.194221, 3.650000, 9.810697
84, 28.287749, 3.650000, 14.413328
85, 25.684738, 3.650000, 18.661055
86, 22.449285, 3.650000, 22.449285
87, 18.661055, 3.650000, 25.684738
88, 14.413328, 3.650000, 28.287749
89, 9.810697, 3.650000, 30.194221
90, 4.966494, 3.650000, 31.357211
91, 0.000000, 3.650000, 31.748083
92, -4.966494, 3.650000, 31.357211
93, -9.810697, 3.650000, 30.194221
94, -14.413328, 3.650000, 28.287749
95, -18.661055, 3.650000, 25.684738
96, -22.449285, 3.650000, 22.449285
97, -25.684738, 3.650000, 18.661055
98, -28.287749, 3.650000, 14.413328
99, -30.194221, 3.650000, 9.810697
100, -31.357211, 3.650000, 4.966494
101, -31.748083, 3.650000, 0.000000
102, -31.357211, 3.650000, -4.966494
103, -30.194221, 3.650000, -9.810697
104, -28.287749, 3.650000, -14.413328
105, -25.684738, 3.650000, -18.661055
106, -22.449285, 3.650000, -22.449285
107, -18.661055, 3.650000, -25.684738
108, -14.413328, 3.650000, -28.287749
109, -9.810697, 3.650000, -30.194221
110, -4.966494, 3.650000, -31.357211
111, -0.000000, 3.650000, -31.748083
112, 4.966494, 3.650000, -31.357211
113, 9.810697, 3.650000, -30.194221
114, 14.413328, 3.650000, -28.287749
115, 18.661055, 3.650000, -25.684738
116, 22.449285, 3.650000, -22.449285
117, 25.684738, 3.650000, -18.661055
118, 28.287749, 3.650000, -14.413328
119, 30.194221, 3.650000, -9.810697
120, 31.357211, 3.650000, -4.966494
121, 29.306935, 5.475000, 0.000000
122, 28.946118, 5.475000, 4.584615
123, 27.872551, 5.475000, 9.056341
124, 26.112670, 5.475000, 13.305070
125, 23.709808, 5.475000, 17.226184
126, 20.723132, 5.475000, 20.723132
127, 17.226184, 5.475000, 23.709808
128, 13.305070, 5.475000, 26.112670
129, 9.056341, 5.475000, 27.872551
130, 4.584615, 5.475000, 28.946118
131, 0.000000, 5.475000, 29.306935
132, -4.584615, 5.475000, 28.946118
133, -9.056341, 5.475000, 27.872551
134, -13.305070, 5.475000, 26.112670
135, -17.226184, 5.475000, 23.709808
136, -20.723132, 5.475000, 20.723132
137, -23.709808, 5.475000, 17.226184
138, -26.112670, 5.475000, 13.305070
139, -27.872551, 5.475000, 9.056341
140, -28.946118, 5.475000, 4.584615
141, -29.306935, 5.475000, 0.000000
142, -28.946118, 5.475000, -4.584615
143, -27.872551, 5.475000, -9.056341
144, -26.112670, 5.475000, -13.305070
145, -23.709808, 5.475000, -17.226184
146, -20.723132, 5.475000, -20.723132
147, -17.226184, 5.475000, -23.709808
148, -13.305070, 5.475000, -26.112670
149, -9.056341, 5.475000, -27.872551
150, -4.584615, 5.475000, -28.946118
151, -0.000000, 5.475000, -29.306935
152, 4.584615, 5.475000, -28.946118
153, 9.056341, 5.475000, -27.872551
154, 13.305070, 5.475000, -26.112670
155, 17.226184, 5.475000, -23.709808
156, 20.723132, 5.475000, -20.723132
157, 23.709808, 5.475000, -17.226184
158, 26.112670, 5.475000, -13.305070
159, 27.872551, 5.475000, -9.056341
160, 28.946118, 5.475000, -4.584615
161, 26.865787, 7.300000, 0.000000
162, 26.535024, 7.300000, 4.202735
163, 25.550882, 7.300000, 8.301985
164, 23.937591, 7.300000, 12.196812
165, 21.734878, 7.300000, 15.791313
166, 18.996980, 7.300000, 18.996980
167, 15.791313, 7.300000, 21.734878
168, 12.196812, 7.300000, 23.937591
169, 8.301985, 7.300000, 25.550882
170, 4.202735, 7.300000, 26.535024
171, 0.000000, 7.300000, 26.865787
172, -4.202735, 7.300000, 26.535024
173, -8.301985, 7.300000, 25.550882
174, -12.196812, 7.300000, 23.937591
175, -15.791313, 7.300000, 21.734878
176, -18.996980, 7.300000, 18.996980
177, -21.734878, 7.300000, 15.791313
178, -23.937591, 7.300000, 12.196812
179, -25.550882, 7.300000, 8.301985
180, -26.535024, 7.300000, 4.202735
181, -26.865787, 7.300000, 0.000000
182, -26.535024, 7.300000, -4.202735
183, -25.550882, 7.300000, -8.301985
184, -23.937591, 7.300000, -12.196812
185, -21.734878, 7.300000, -15.791313
186, -18.996980, 7.300000, -18.996980
187, -15.791313, 7.300000, -21.734878
188, -12.196812, 7.300000, -23.937591
189, -8.301985, 7.300000, -25.550882
190, -4.202735, 7.300000, -26.535024
191, -0.000000, 7.300000, -26.865787
192, 4.202735, 7.300000, -26.535024
193, 8.301985, 7.300000, -25.550882
194, 12.196812, 7.300000, -23.937591
195, 15.791313, 7.300000, -21.734878
196, 18.996980, 7.300000, -18.996980
197, 21.734878, 7.300000, -15.791313
198, 23.937591, 7.300000, -12.196812
199, 25.550882, 7.300000, -8.301985
200, 26.535024, 7.300000, -4.202735
201, 25.218745, 9.125000, 0.000000
202, 24.908260, 9.125000, 3.945081
203, 23.984452, 9.125000, 7.793021
204, 22.470066, 9.125000, 11.449071
205, 20.402393, 9.125000, 14.823206
206, 17.832345, 9.125000, 17.832345
207, 14.823206, 9.125000, 20.402393
208, 11.449071, 9.125000, 22.470066
209, 7.793021, 9.125000, 23.984452
210, 3.945081, 9.125000, 24.908260
211, 0.000000, 9.125000, 25.218745
212, -3.945081, 9.125000, 24.908260
213, -7.793021, 9.125000, 23.984452
214, -11.449071, 9.125000, 22.470066
215, -14.823206, 9.125000, 20.402393
216, -17.832345, 9.125000, 17.832345
217, -20.402393, 9.125000, 14.823206
218, -22.470066, 9.125000, 11.449071
219, -23.984452, 9.125000, 7.793021
220, -24.908260, 9.125000, 3.945081
221, -25.218745, 9.125000, 0.000000
222, -24.908260, 9.125000, -3.945081
223, -23.984452, 9.125000, -7.793021
224, -22.470066, 9.125000, -11.449071
225, -20.402393, 9.125000, -14.823206
226, -17.832345, 9.125000, -17.832345
227, -14.823206, 9.125000, -20.402393
228, -11.449071, 9.125000, -22.470066
229, -7.793021, 9.125000, -23.984452
230, -3.945081, 9.125000, -24.908260
231, -0.000000, 9.125000, -25.218745
232, 3.945081, 9.125000, -24.908260
233, 7.793021, 9.125000, -23.984452
234, 11.449071, 9.125000, -22.470066
235, 14.823206, 9.125000, -20.402393
236, 17.832345, 9.125000, -17.832345
237, 20.402393, 9.125000, -14.823206
238, 22.470066, 9.125000, -11.449071
239, 23.984452, 9.125000, -7.793021
240, 24.908260, 9.125000, -3.945081
241, 23.571703, 10.950000, 0.000000
242, 23.281496, 10.950000, 3.687427
243, 22.418022, 10.950000, 7.284057
244, 21.002541, 10.950000, 10.701329
245, 19.069908, 10.950000, 13.855099
246, 16.667711, 10.950000, 16.667711
247, 13.855099, 10.950000, 19.069908
248, 10.701329, 10.950000, 21.002541
249, 7.284057, 10.950000, 22.418022
250, 3.687427, 10.950000, 23.281496
251, 0.000000, 10.950000, 23.571703
252, -3.687427, 10.950000, 23.281496
253, -7.284057, 10.950000, 22.418022
254, -10.701329, 10.950000, 21.002541
255, -13.855099, 10.950000, 19.069908
256, -16.667711, 10.950000, 16.667711
257, -19.069908, 10.950000, 13.855099
258, -21.002541, 10.950000, 10.701329
259, -22.418022, 10.950000, 7.284057
260, -23.281496, 10.950000, 3.687427
261, -23.571703, 10.950000, 0.000000
262, -23.281496, 10.950000, -3.687427
263, -22.418022, 10.950000, -7.284057
264, -21.002541, 10.950000, -10.701329
265, -19.069908, 10.950000, -13.855099
266, -16.667711, 10.950000, -16.667711
267, -13.855099, 10.950000, -19.069908
268, -10.701329, 10.950000, -21.002541
269, -7.284057, 10.950000, -22.418022
270, -3.687427, 10.950000, -23.281496
271, -0.000000, 10.950000, -23.571703
272, 3.687427, 10.950000, -23.281496
273, 7.284057, 10.950000, -22.418022
274, 10.701329, 10.950000, -21.002541
275, 13.855099, 10.950000, -19.069908
276, 16.667711, 10.950000, -16.667711
277, 19.069908, 10.950000, -13.855099
278, 21.002541, 10.950000, -10.701329
279, 22.418022, 10.950000, -7.284057
280, 23.281496, 10.950000, -3.687427
281, 22.501192, 12.775000, 0.000000
282, 22.224165, 12.775000, 3.519962
283, 21.399906, 12.775000, 6.953251
284, 20.048709, 12.775000, 10.215328
285, 18.203847, 12.775000, 13.225869
286, 15.910746, 12.775000, 15.910746
287, 13.225869, 12.775000, 18.203847
288, 10.215328, 12.775000, 20.048709
289, 6.953251, 12.775000, 21.399906
290, 3.519962, 12.775000, 22.224165
291, 0.000000, 12.775000, 22.501192
292, -3.519962, 12.775000, 22.224165
293, -6.953251, 12.775000, 21.399906
294, -10.215328, 12.775000, 20.048709
295, -13.225869, 12.775000, 18.203847
296, -15.910746, 12.775000, 15.910746
297, -18.203847, 12.775000, 13.225869
298, -20.048709, 12.775000, 10.215328
299, -21.399906, 12.775000, 6.953251
300, -22.224165, 12.775000, 3.519962
301, -22.501192, 12.775000, 0.000000
302, -22.224165, 12.775000, -3.519962
303, -21.399906, 12.775000, -6.953251
304, -20.048709, 12.775000, -10.215328
305, -18.203847, 12.775000, -13.225869
306, -15.910746, 12.775000, -15.910746
307, -13.225869, 12.775000, -18.203847
308, -10.215328, 12.775000, -20.048709
309, -6.953251, 12.775000, -21.399906
310, -3.519962, 12.775000, -22.224165
311, -0.000000, 12.775000, -22.501192
312, 3.519962, 12.775000, -22.224165
313, 6.953251, 12.775000, -21.399906
314, 10.215328, 12.775000, -20.048709
315, 13.225869, 12.775000, -18.203847
316, 15.910746, 12.775000, -15.910746
317, 18.203847, 12.775000, -13.225869
318, 20.048709, 12.775000, -10.215328
319, 21.399906, 12.775000, -6.953251
320, 22.224165, 12.775000, -3.519962
321, 21.430682, 14.600000, 0.000000
322, 21.166834, 14.600000, 3.352497
323, 20.381789, 14.600000, 6.622445
324, 19.094877, 14.600000, 9.729326
325, 17.337786, 14.600000, 12.596639
326, 15.153780, 14.600000, 15.153780
327, 12.596639, 14.600000, 17.337786
328, 9.729326, 14.600000, 19.094877
329, 6.622445, 14.600000, 20.381789
330, 3.352497, 14.600000, 21.166834
331, 0.000000, 14.600000, 21.430682
332, -3.352497, 14.600000, 21.166834
333, -6.622445, 14.600000, 20.381789
334, -9.729326, 14.600000, 19.094877
335, -12.596639, 14.600000, 17.337786
336, -15.153780, 14.600000, 15.153780
337, -17.337786, 14.600000, 12.596639
338, -19.094877, 14.600000, 9.729326
339, -20.381789, 14.600000, 6.622445
340, -21.166834, 14.600000, 3.352497
341, -21.430682, 14.600000, 0.000000
342, -21.166834, 14.600000, -3.352497
343, -20.381789, 14.600000, -6.622445
344, -19.094877, 14.600000, -9.729326
345, -17.337786, 14.600000, -12.596639
346, -15.153780, 14.600000, -15.153780
347, -12.596639, 14.600000, -17.337786
348, -9.729326, 14.600000, -19.094877
349, -6.622445, 14.600000, -20.381789
350, -3.352497, 14.600000, -21.166834
351, -0.000000, 14.600000, -21.430682
352, 3.352497, 14.600000, -21.166834
353, 6.622445, 14.600000, -20.381789
354, 9.729326, 14.600000, -19.094877
355, 12.596639, 14.600000, -17.337786
356, 15.153780, 14.600000, -15.153780
357, 17.337786, 14.600000, -12.596639
358, 19.094877, 14.600000, -9.729326
359, 20.381789, 14.600000, -6.622445
360, 21.166834, 14.600000, -3.352497
361, 20.831661, 16.425000, 0.000000
362, 20.575189, 16.425000, 3.258790
363, 19.812087, 16.425000, 6.437337
364, 18.561146, 16.425000, 9.457376
365, 16.853168, 16.425000, 12.244543
366, 14.730209, 16.425000, 14.730209
367, 12.244543, 16.425000, 16.853168
368, 9.457376, 16.425000, 18.561146
369, 6.437337, 16.425000, 19.812087
370, 3.258790, 16.425000, 20.575189
371, 0.000000, 16.425000, 20.831661
372, -3.258790, 16.425000, 20.575189
373, -6.437337, 16.425000, 19.812087
374, -9.457376, 16.425000, 18.561146
375, -12.244543, 16.425000, 16.853168
376, -14.730209, 16.425000, 14.730209
377, -16.853168, 16.425000, 12.244543
378, -18.561146, 16.425000, 9.457376
379, -19.812087, 16.425000, 6.437337
380, -20.575189, 16.425000, 3.258790
381, -20.831661, 16.425000, 0.000000
382, -20.575189, 16.425000, -3.258790
383, -19.812087, 16.425000, -6.437337
384, -18.561146, 16.425000, -9.457376
385, -16.853168, 16.425000, -12.244543
386, -14.730209, 16.425000, -14.730209
387, -12.244543, 16.425000, -16.853168
388, -9.457376, 16.425000, -18.561146
389, -6.437337, 16.425000, -19.812087
390, -3.258790, 16.425000, -20.575189
391, -0.000000, 16.425000, -20.831661
392, 3.258790, 16.425000, -20.575189
393, 6.437337, 16.425000, -19.812087
394, 9.457376, 16.425000, -18.561146
395, 12.244543, 16.425000, -16.853168
396, 14.730209, 16.425000, -14.730209
397, 16.853168, 16.425000, -12.244543
398, 18.561146, 16.425000, -9.457376
399, 19.812087, 16.425000, -6.437337
400, 20.575189, 16.425000, -3.258790
401, 20.232640, 18.250000, 0.000000
402, 19.983543, 18.250000, 3.165082
403, 19.242384, 18.250000, 6.252230
404, 18.027414, 18.250000, 9.185426
405, 16.368550, 18.250000, 11.892447
406, 14.306637, 18.250000, 14.306637
407, 11.892447, 18.250000, 16.368550
408, 9.185426, 18.250000, 18.027414
409, 6.252230, 18.250000, 19.242384
410, 3.165082, 18.250000, 19.983543
411, 0.000000, 18.250000, 20.232640
412, -3.165082, 18.250000, 19.983543
413, -6.252230, 18.250000, 19.242384
414, -9.185426, 18.250000, 18.027414
415, -11.892447, 18.250000, 16.368550
416, -14.306637, 18.250000, 14.306637
417, -16.368550, 18.250000, 11.892447
418, -18.027414, 18.250000, 9.185426
419, -19.242384, 18.250000, 6.252230
420, -19.983543, 18.250000, 3.165082
421, -20.232640, 18.250000, 0.000000
422, -19.983543, 18.250000, -3.165082
423, -19.242384, 18.250000, -6.252230
424, -18.027414, 18.250000, -9.185426
425, -16.368550, 18.250000, -11.892447
426, -14.306637, 18.250000, -14.306637
427, -11.892447, 18.250000, -16.368550
428, -9.185426, 18.250000, -18.027414
429, -6.252230, 18.250000, -19.242384
430, -3.165082, 18.250000, -19.983543
431, -0.000000, 18.250000, -20.232640
432, 3.165082, 18.250000, -19.983543
433, 6.252230, 18.250000, -19.242384
434, 9.185426, 18.250000, -18.027414
435, 11.892447, 18.250000, -16.368550
436, 14.306637, 18.250000, -14.306637
437, 16.368550, 18.250000, -11.892447
438, 18.027414, 18.250000, -9.185426
439, 19.242384, 18.250000, -6.252230
440, 19.983543, 18.250000, -3.165082
441, 20.055402, 20.075000, 0.000000
442, 19.808487, 20.075000, 3.137356
443, 19.073821, 20.075000, 6.197460
444, 17.869494, 20.075000, 9.104962
445, 16.225161, 20.075000, 11.788270
446, 14.181311, 20.075000, 14.181311
447, 11.788270, 20.075000, 16.225161
448, 9.104962, 20.075000, 17.869494
449, 6.197460, 20.075000, 19.073821
450, 3.137356, 20.075000, 19.808487
451, 0.000000, 20.075000, 20.055402
452, -3.137356, 20.075000, 19.808487
453, -6.197460, 20.075000, 19.073821
454, -9.104962, 20.075000, 17.869494
455, -11.788270, 20.075000, 16.225161
456, -14.181311, 20.075000, 14.181311
457, -16.225161, 20.075000, 11.788270
458, -17.869494, 20.075000, 9.104962
459, -19.073821, 20.075000, 6.197460
460, -19.808487, 20.075000, 3.137356
461, -20.055402, 20.075000, 0.000000
462, -19.808487, 20.075000, -3.137356
463, -19.073821, 20.075000, -6.197460
464, -17.869494, 20.075000, -9.104962
465, -16.225161, 20.075000, -11.788270
466, -14.181311, 20.075000, -14.181311
467, -11.788270, 20.075000, -16.225161
468, -9.104962, 20.075000, -17.869494
469, -6.197460, 20.075000, -19.073821
470, -3.137356, 20.075000, -19.808487
471, -0.000000, 20.075000, -20.055402
472, 3.137356, 20.075000, -19.808487
473, 6.197460, 20.075000, -19.073821
474, 9.104962, 20.075000, -17.869494
475, 11.788270, 20.075000, -16.225161
476, 14.181311, 20.075000, -14.181311
477, 16.225161, 20.075000, -11.788270
478, 17.869494, 20.075000, -9.104962
479, 19.073821, 20.075000, -6.197460
480, 19.808487, 20.075000, -3.137356
481, 19.878164, 21.900000, 0.000000
482, 19.633431, 21.900000, 3.109630
483, 18.905258, 21.900000, 6.142691
484, 17.711574, 21.900000, 9.024498
485, 16.081773, 21.900000, 11.684092
486, 14.055985, 21.900000, 14.055985
487, 11.684092, 21.900000, 16.081773
488, 9.024498, 21.900000, 17.711574
489, 6.142691, 21.900000, 18.905258
490, 3.109630, 21.900000, 19.633431
491, 0.000000, 21.900000, 19.878164
492, -3.109630, 21.900000, 19.633431
493, -6.142691, 21.900000, 18.905258
494, -9.024498, 21.900000, 17.711574
495, -11.684092, 21.900000, 16.081773
496, -14.055985, 21.900000, 14.055985
497, -16.081773, 21.900000, 11.684092
498, -17.711574, 21.900000, 9.024498
499, -18.905258, 21.900000, 6.142691
500, -19.633431, 21.900000, 3.109630
501, -19.878164, 21.900000, 0.000000
502, -19.633431, 21.900000, -3.109630
503, -18.905258, 21.900000, -6.142691
504, -17.711574, 21.900000, -9.024498
505, -16.081773, 21.900000, -11.684092
506, -14.055985, 21.900000, -14.055985
507, -11.684092, 21.900000, -16.081773
508, -9.024498, 21.900000, -17.711574
509, -6.142691, 21.900000, -18.905258
510, -3.109630, 21.900000, -19.633431
511, -0.000000, 21.900000, -19.878164
512, 3.109630, 21.900000, -19.633431
513, 6.142691, 21.900000, -18.905258
514, 9.024498, 21.900000, -17.711574
515, 11.684092, 21.900000, -16.081773
516, 14.055985, 21.900000, -14.055985
517, 16.081773, 21.900000, -11.684092
518, 17.711574, 21.900000, -9.024498
519, 18.905258, 21.900000, -6.142691
520, 19.633431, 21.900000, -3.109630
521, 20.109055, 23.725000, 0.000000
522, 19.861479, 23.725000, 3.145749
523, 19.124848, 23.725000, 6.214040
524, 17.917299, 23.725000, 9.129320
525, 16.268567, 23.725000, 11.819806
526, 14.219249, 23.725000, 14.219249
527, 11.819806, 23.725000, 16.268567
528, 9.129320, 23.725000, 17.917299
529, 6.214040, 23.725000, 19.124848
530, 3.145749, 23.725000, 19.861479
531, 0.000000, 23.725000, 20.109055
532, -3.145749, 23.725000, 19.861479
533, -6.214040, 23.725000, 19.124848
534, -9.129320, 23.725000, 17.917299
535, -11.819806, 23.725000, 16.268567
536, -14.219249, 23.725000, 14.219249
537, -16.268567, 23.725000, 11.819806
538, -17.917299, 23.725000, 9.129320
539, -19.124848, 23.725000, 6.214040
540, -19.861479, 23.725000, 3.145749
541, -20.109055, 23.725000, 0.000000
542, -19.861479, 23.725000, -3.145749
543, -19.124848, 23.725000, -6.214040
544, -17.917299, 23.725000, -9.129320
545, -16.268567, 23.725000, -11.819806
546, -14.219249, 23.725000, -14.219249
547, -11.819806, 23.725000, -16.268567
548, -9.129320, 23.725000, -17.917299
549, -6.214040, 23.725000, -19.124848
550, -3.145749, 23.725000, -19.861479
551, -0.000000, 23.725000, -20.109055
552, 3.145749, 23.725000, -19.861479
553, 6.214040, 23.725000, -19.124848
554, 9.129320, 23.725000, -17.917299
555, 11.819806, 23.725000, -16.268567
556, 14.219249, 23.725000, -14.219249
557, 16.268567, 23.725000, -11.819806
558, 17.917299, 23.725000, -9.129320
559, 19.124848, 23.725000, -6.214040
560, 19.861479, 23.725000, -3.145749
561, 20.339946, 25.550000, 0.000000
562, 20.089527, 25.550000, 3.181869
563, 19.344438, 25.550000, 6.285389
564, 18.123024, 25.550000, 9.234142
565, 16.455362, 25.550000, 11.955520
566, 14.382514, 25.550000, 14.382514
567, 11.955520, 25.550000, 16.455362
568, 9.234142, 25.550000, 18.123024
569, 6.285389, 25.550000, 19.344438
570, 3.181869, 25.550000, 20.089527
571, 0.000000, 25.550000, 20.339946
572, -3.181869, 25.550000, 20.089527
573, -6.285389, 25.550000, 19.344438
574, -9.234142, 25.550000, 18.123024
575, -11.955520, 25.550000, 16.455362
576, -14.382514, 25.550000, 14.382514
577, -16.455362, 25.550000, 11.955520
578, -18.123024, 25.550000, 9.234142
579, -19.344438, 25.550000, 6.285389
580, -20.089527, 25.550000, 3.181869
581, -20.339946, 25.550000, 0.000000
582, -20.089527, 25.550000, -3.181869
583, -19.344438, 25.550000, -6.285389
584, -18.123024, 25.550000, -9.234142
585, -16.455362, 25.550000, -11.955520
586, -14.382514, 25.550000, -14.382514
587, -11.955520, 25.550000, -16.455362
588, -9.234142, 25.550000, -18.123024
589, -6.285389, 25.550000, -19.344438
590, -3.181869, 25.550000, -20.089527
591, -0.000000, 25.550000, -20.339946
592, 3.181869, 25.550000, -20.089527
593, 6.285389, 25.550000, -19.344438
594, 9.234142, 25.550000, -18.123024
595, 11.955520, 25.550000, -16.455362
596, 14.382514, 25.550000, -14.382514
597, 16.455362, 25.550000, -11.955520
598, 18.123024, 25.550000, -9.234142
599, 19.344438, 25.550000, -6.285389
600, 20.089527, 25.550000, -3.181869
601, 20.996843, 27.375000, 0.000000
602, 20.738337, 27.375000, 3.284630
603, 19.969185, 27.375000, 6.488381
604, 18.708324, 27.375000, 9.532367
605, 16.986803, 27.375000, 12.341635
606, 14.847010, 27.375000, 14.847010
607, 12.341635, 27.375000, 16.986803
608, 9.532367, 27.375000, 18.708324
609, 6.488381, 27.375000, 19.969185
610, 3.284630, 27.375000, 20.738337
611, 0.000000, 27.375000, 20.996843
612, -3.284630, 27.375000, 20.738337
613, -6.488381, 27.375000, 19.969185
614, -9.532367, 27.375000, 18.708324
615, -12.341635, 27.375000, 16.986803
616, -14.847010, 27.375000, 14.847010
617, -16.986803, 27.375000, 12.341635
618, -18.708324, 27.375000, 9.532367
619, -19.969185, 27.375000, 6.488381
620, -20.738337, 27.375000, 3.284630
621, -20.996843, 27.375000, 0.000000
622, -20.738337, 27.375000, -3.284630
623, -19.969185, 27.375000, -6.488381
624, -18.708324, 27.375000, -9.532367
625, -16.986803, 27.375000, -12.341635
626, -14.847010, 27.375000, -14.847010
627, -12.341635, 27.375000, -16.986803
628, -9.532367, 27.375000, -18.708324
629, -6.488381, 27.375000, -19.969185
630, -3.284630, 27.375000, -20.738337
631, -0.000000, 27.375000, -20.996843
632, 3.284630, 27.375000, -20.738337
633, 6.488381, 27.375000, -19.969185
634, 9.532367, 27.375000, -18.708324
635, 12.341635, 27.375000, -16.986803
636, 14.847010, 27.375000, -14.847010
637, 16.986803, 27.375000, -12.341635
638, 18.708324, 27.375000, -9.532367
639, 19.969185, 27.375000, -6.488381
640, 20.738337, 27.375000, -3.284630
641, 21.653741, 29.200000, 0.000000
642, 21.387147, 29.200000, 3.387391
643, 20.593931, 29.200000, 6.691374
644, 19.293624, 29.200000, 9.830593
645, 17.518244, 29.200000, 12.727749
646, 15.311507, 29.200000, 15.311507
647, 12.727749, 29.200000, 17.518244
648, 9.830593, 29.200000, 19.293624
649, 6.691374, 29.200000, 20.593931
650, 3.387391, 29.200000, 21.387147
651, 0.000000, 29.200000, 21.653741
652, -3.387391, 29.200000, 21.387147
653, -6.691374, 29.200000, 20.593931
654, -9.830593, 29.200000, 19.293624
655, -12.727749, 29.200000, 17.518244
656, -15.311507, 29.200000, 15.311507
657, -17.518244, 29.200000, 12.727749
658, -19.293624, 29.200000, 9.830593
659, -20.593931, 29.200000, 6.691374
660, -21.387147, 29.200000, 3.387391
661, -21.653741, 29.200000, 0.000000
662, -21.387147, 29.200000, -3.387391
663, -20.593931, 29.200000, -6.691374
664, -19.293624, 29.200000, -9.830593
665, -17.518244, 29.200000, -12.727749
666, -15.311507, 29.200000, -15.311507
667, -12.727749, 29.200000, -17.518244
668, -9.830593, 29.200000, -19.293624
669, -6.691374, 29.200000, -20.593931
670, -3.387391, 29.200000, -21.387147
671, -0.000000, 29.200000, -21.653741
672, 3.387391, 29.200000, -21.387147
673, 6.691374, 29.200000, -20.593931
674, 9.830593, 29.200000, -19.293624
675, 12.727749, 29.200000, -17.518244
676, 15.311507, 29.200000, -15.311507
677, 17.518244, 29.200000, -12.727749
678, 19.293624, 29.200000, -9.830593
679, 20.593931, 29.200000, -6.691374
680, 21.387147, 29.200000, -3.387391
681, 22.792039, 31.025000, 0.000000
682, 22.511431, 31.025000, 3.565460
683, 21.676517, 31.025000, 7.043127
684, 20.307855, 31.025000, 10.347369
685, 18.439147, 31.025000, 13.396824
686, 16.116405, 31.025000, 16.116405
687, 13.396824, 31.025000, 18.439147
688, 10.347369, 31.025000, 20.307855
689, 7.043127, 31.025000, 21.676517
690, 3.565460, 31.025000, 22.511431
691, 0.000000, 31.025000, 22.792039
692, -3.565460, 31.025000, 22.511431
693, -7.043127, 31.025000, 21.676517
694, -10.347369, 31.025000, 20.307855
695, -13.396824, 31.025000, 18.439147
696, -16.116405, 31.025000, 16.116405
697, -18.439147, 31.025000, 13.396824
698, -20.307855, 31.025000, 10.347369
699, -21.676517, 31.025000, 7.043127
700, -22.511431, 31.025000, 3.565460
701, -22.792039, 31.025000, 0.000000
702, -22.511431, 31.025000, -3.565460
703, -21.676517, 31.025000, -7.043127
704, -20.307855, 31.025000, -10.347369
705, -18.439147, 31.025000, -13.396824
706, -16.116405, 31.025000, -16.116405
707, -13.396824, 31.025000, -18.439147
708, -10.347369, 31.025000, -20.307855
709, -7.043127, 31.025000, -21.676517
710, -3.565460, 31.025000, -22.511431
711, -0.000000, 31.025000, -22.792039
712, 3.565460, 31.025000, -22.511431
713, 7.043127, 31.025000, -21.676517
714, 10.347369, 31.025000, -20.307855
715, 13.396824, 31.025000, -18.439147
716, 16.116405, 31.025000, -16.116405
717, 18.439147, 31.025000, -13.396824
718, 20.307855, 31.025000, -10.347369
719, 21.676517, 31.025000, -7.043127
720, 22.511431, 31.025000, -3.565460
721, 23.930337, 32.850000, 0.000000
722, 23.635715, 32.850000, 3.743529
723, 22.759103, 32.850000, 7.394881
724, 21.322086, 32.850000, 10.864146
725, 19.360049, 32.850000, 14.065899
726, 16.921304, 32.850000, 16.921304
727, 14.065899, 32.850000, 19.360049
728, 10.864146, 32.850000, 21.322086
729, 7.394881, 32.850000, 22.759103
730, 3.743529, 32.850000, 23.635715
731, 0.000000, 32.850000, 23.930337
732, -3.743529, 32.850000, 23.635715
733, -7.394881, 32.850000, 22.759103
734, -10.864146, 32.850000, 21.322086
735, -14.065899, 32.850000, 19.360049
736, -16.921304, 32.850000, 16.921304
737, -19.360049, 32.850000, 14.065899
738, -21.322086, 32.850000, 10.864146
739, -22.759103, 32.850000, 7.394881
740, -23.635715, 32.850000, 3.743529
741, -23.930337, 32.850000, 0.000000
742, -23.635715, 32.850000, -3.743529
743, -22.759103, 32.850000, -7.394881
744, -21.322086, 32.850000, -10.864146
745, -19.360049, 32.850000, -14.065899
746, -16.921304, 32.850000, -16.921304
747, -14.065899, 32.850000, -19.360049
748, -10.864146, 32.850000, -21.322086
749, -7.394881, 32.850000, -22.759103
750, -3.743529, 32.850000, -23.635715
751, -0.000000, 32.850000, -23.930337
752, 3.743529, 32.850000, -23.635715
753, 7.394881, 32.850000, -22.759103
754, 10.864146, 32.850000, -21.322086
755, 14.065899, 32.850000, -19.360049
756, 16.921304, 32.850000, -16.921304
757, 19.360049, 32.850000, -14.065899
758, 21.322086, 32.850000, -10.864146
759, 22.759103, 32.850000, -7.394881
760, 23.635715, 32.850000, -3.743529
761, 25.665169, 34.675000, 0.000000
762, 25.349188, 34.675000, 4.014917
763, 24.409026, 34.675000, 7.930973
764, 22.867833, 34.675000, 11.651743
765, 20.763557, 34.675000, 15.085608
766, 18.148015, 34.675000, 18.148015
767, 15.085608, 34.675000, 20.763557
768, 11.651743, 34.675000, 22.867833
769, 7.930973, 34.675000, 24.409026
770, 4.014917, 34.675000, 25.349188
771, 0.000000, 34.675000, 25.665169
772, -4.014917, 34.675000, 25.349188
773, -7.930973, 34.675000, 24.409026
774, -11.651743, 34.675000, 22.867833
775, -15.085608, 34.675000, 20.763557
776, -18.148015, 34.675000, 18.148015
777, -20.763557, 34.675000, 15.085608
778, -22.867833, 34.675000, 11.651743
779, -24.409026, 34.675000, 7.930973
780, -25.349188, 34.675000, 4.014917
781, -25.665169, 34.675000, 0.000000
782, -25.349188, 34.675000, -4.014917
783, -24.409026, 34.675000, -7.930973
784, -22.867833, 34.675000, -11.651743
785, -20.763557, 34.675000, -15.085608
786, -18.148015, 34.675000, -18.148015
787, -15.085608, 34.675000, -20.763557
788, -11.651743, 34.675000, -22.867833
789, -7.930973, 34.675000, -24.409026
790, -4.014917, 34.675000, -25.349188
791, -0.000000, 34.675000, -25.665169
792, 4.014917, 34.675000, -25.349188
793, 7.930973, 34.675000, -24.409026
794, 11.651743, 34.675000, -22.867833
795, 15.085608, 34.675000, -20.763557
796, 18.148015, 34.675000, -18.148015
797, 20.763557, 34.675000, -15.085608
798, 22.867833, 34.675000, -11.651743
799, 24.409026, 34.675000, -7.930973
800, 25.349188, 34.675000, -4.014917
801, 27.400000, 36.500000, 0.000000
802, 27.062661, 36.500000, 4.286304
803, 26.058949, 36.500000, 8.467066
804, 24.413579, 36.500000, 12.439340
805, 22.167066, 36.500000, 16.105316
806, 19.374726, 36.500000, 19.374726
807, 16.105316, 36.500000, 22.167066
808, 12.439340, 36.500000, 24.413579
809, 8.467066, 36.500000, 26.058949
810, 4.286304, 36.500000, 27.062661
811, 0.000000, 36.500000, 27.400000
812, -4.286304, 36.500000, 27.062661
813, -8.467066, 36.500000, 26.058949
814, -12.439340, 36.500000, 24.413579
815, -16.105316, 36.500000, 22.167066
816, -19.374726, 36.500000, 19.374726
817, -22.167066, 36.500000, 16.105316
818, -24.413579, 36.500000, 12.439340
819, -26.058949, 36.500000, 8.467066
820, -27.062661, 36.500000, 4.286304
821, -27.400000, 36.500000, 0.000000
822, -27.062661, 36.500000, -4.286304
823, -26.058949, 36.500000, -8.467066
824, -24.413579, 36.500000, -12.439340
825, -22.167066, 36.500000, -16.105316
826, -19.374726, 36.500000, -19.374726
827, -16.105316, 36.500000, -22.167066
828, -12.439340, 36.500000, -24.413579
829, -8.467066, 36.500000, -26.058949
830, -4.286304, 36.500000, -27.062661
831, -0.000000, 36.500000, -27.400000
832, 4.286304, 36.500000, -27.062661
833, 8.467066, 36.500000, -26.058949
834, 12.439340, 36.500000, -24.413579
835, 16.105316, 36.500000, -22.167066
836, 19.374726, 36.500000, -19.374726
837, 22.167066, 36.500000, -16.105316
838, 24.413579, 36.500000, -12.439340
839, 26.058949, 36.500000, -8.467066
840, 27.062661, 36.500000, -4.286304
*ELEMENT, TYPE=S4R, ELSET=EALL
1, 1, 2, 42, 41
2, 2, 3, 43, 42
3, 3, 4, 44, 43
4, 4, 5, 45, 44
5, 5, 6, 46, 45
6, 6, 7, 47, 46
7, 7, 8, 48, 47
8, 8, 9, 49, 48
9, 9, 10, 50, 49
10, 10, 11, 51, 50
11, 11, 12, 52, 51
12, 12, 13, 53, 52
13, 13, 14, 54, 53
14, 14, 15, 55, 54
15, 15, 16, 56, 55
16, 16, 17, 57, 56
17, 17, 18, 58, 57
18, 18, 19, 59, 58
19, 19, 20, 60, 59
20, 20, 21, 61, 60
21, 21, 22, 62, 61
22, 22, 23, 63, 62
23, 23, 24, 64, 63
24, 24, 25, 65, 64
25, 25, 26, 66, 65
26, 26, 27, 67, 66
27, 27, 28, 68, 67
28, 28, 29, 69, 68
29, 29, 30, 70, 69
30, 30, 31, 71, 70
31, 31, 32, 72, 71
32, 32, 33, 73, 72
33, 33, 34, 74, 73
34, 34, 35, 75, 74
35, 35, 36, 76, 75
36, 36, 37, 77, 76
37, 37, 38, 78, 77
38, 38, 39, 79, 78
39, 39, 40, 80, 79
40, 40, 1, 41, 80
41, 41, 42, 82, 81
42, 42, 43, 83, 82
43, 43, 44, 84, 83
44, 44, 45, 85, 84
45, 45, 46, 86, 85
46, 46, 47, 87, 86
47, 47, 48, 88, 87
48, 48, 49, 89, 88
49, 49, 50, 90, 89
50, 50, 51, 91, 90
51, 51, 52, 92, 91
52, 52, 53, 93, 92
53, 53, 54, 94, 93
54, 54, 55, 95, 94
55, 55, 56, 96, 95
56, 56, 57, 97, 96
57, 57, 58, 98, 97
58, 58, 59, 99, 98
59, 59, 60, 100, 99
60, 60, 61, 101, 100
61, 61, 62, 102, 101
62, 62, 63, 103, 102
63, 63, 64, 104, 103
64, 64, 65, 105, 104
65, 65, 66, 106, 105
66, 66, 67, 107, 106
67, 67, 68, 108, 107
68, 68, 69, 109, 108
69, 69, 70, 110, 109
70, 70, 71, 111, 110
71, 71, 72, 112, 111
72, 72, 73, 113, 112
73, 73, 74, 114, 113
74, 74, 75, 115, 114
75, 75, 76, 116, 115
76, 76, 77, 117, 116
77, 77, 78, 118, 117
78, 78, 79, 119, 118
79, 79, 80, 120, 119
80, 80, 41, 81, 120
81, 81, 82, 122, 121
82, 82, 83, 123, 122
83, 83, 84, 124, 123
84, 84, 85, 125, 124
85, 85, 86, 126, 125
86, 86, 87, 127, 126
87, 87, 88, 128, 127
88, 88, 89, 129, 128
89, 89, 90, 130, 129
90, 90, 91, 131, 130
91, 91, 92, 132, 131
92, 92, 93, 133, 132
93, 93, 94, 134, 133
94, 94, 95, 135, 134
95, 95, 96, 136, 135
96, 96, 97, 137, 136
97, 97, 98, 138, 137
98, 98, 99, 139, 138
99, 99, 100, 140, 139
100, 100, 101, 141, 140
101, 101, 102, 142, 141
102, 102, 103, 143, 142
103, 103, 104, 144, 143
104, 104, 105, 145, 144
105, 105, 106, 146, 145
106, 106, 107, 147, 146
107, 107, 108, 148, 147
108, 108, 109, 149, 148
109, 109, 110, 150, 149
110, 110, 111, 151, 150
111, 111, 112, 152, 151
112, 112, 113, 153, 152
113, 113, 114, 154, 153
114, 114, 115, 155, 154
115, 115, 116, 156, 155
116, 116, 117, 157, 156
117, 117, 118, 158, 157
118, 118, 119, 159, 158
119, 119, 120, 160, 159
120, 120, 81, 121, 160
121, 121, 122, 162, 161
122, 122, 123, 163, 162
123, 123, 124, 164, 163
124, 124, 125, 165, 164
125, 125, 126, 166, 165
126, 126, 127, 167, 166
127, 127, 128, 168, 167
128, 128, 129, 169, 168
129, 129, 130, 170, 169
130, 130, 131, 171, 170
131, 131, 132, 172, 171
132, 132, 133, 173, 172
133, 133, 134, 174, 173
134, 134, 135, 175, 174
135, 135, 136, 176, 175
136, 136, 137, 177, 176
137, 137, 138, 178, 177
138, 138, 139, 179, 178
139, 139, 140, 180, 179
140, 140, 141, 181, 180
141, 141, 142, 182, 181
142, 142, 143, 183, 182
143, 143, 144, 184, 183
144, 144, 145, 185, 184
145, 145, 146, 186, 185
146, 146, 147, 187, 186
147, 147, 148, 188, 187
148, 148, 149, 189, 188
149, 149, 150, 190, 189
150, 150, 151, 191, 190
151, 151, 152, 192, 191
152, 152, 153, 193, 192
153, 153, 154, 194, 193
154, 154, 155, 195, 194
155, 155, 156, 196, 195
156, 156, 157, 197, 196
157, 157, 158, 198, 197
158, 158, 159, 199, 198
159, 159, 160, 200, 199
160, 160, 121, 161, 200
161, 161, 162, 202, 201
162, 162, 163, 203, 202
163, 163, 164, 204, 203
164, 164, 165, 205, 204
165, 165, 166, 206, 205
166, 166, 167, 207, 206
167, 167, 168, 208, 207
168, 168, 169, 209, 208
169, 169, 170, 210, 209
170, 170, 171, 211, 210
171, 171, 172, 212, 211
172, 172, 173, 213, 212
173, 173, 174, 214, 213
174, 174, 175, 215, 214
175, 175, 176, 216, 215
176, 176, 177, 217, 216
177, 177, 178, 218, 217
178, 178, 179, 219, 218
179, 179, 180, 220, 219
180, 180, 181, 221, 220
181, 181, 182, 222, 221
182, 182, 183, 223, 222
183, 183, 184, 224, 223
184, 184, 185, 225, 224
185, 185, 186, 226, 225
186, 186, 187, 227, 226
187, 187, 188, 228, 227
188, 188, 189, 229, 228
189, 189, 190, 230, 229
190, 190, 191, 231, 230
191, 191, 192, 232, 231
192, 192, 193, 233, 232
193, 193, 194, 234, 233
194, 194, 195, 235, 234
195, 195, 196, 236, 235
196, 196, 197, 237, 236
197, 197, 198, 238, 237
198, 198, 199, 239, 238
199, 199, 200, 240, 239
200, 200, 161, 201, 240
201, 201, 202, 242, 241
202, 202, 203, 243, 242
203, 203, 204, 244, 243
204, 204, 205, 245, 244
205, 205, 206, 246, 245
206, 206, 207, 247, 246
207, 207, 208, 248, 247
208, 208, 209, 249, 248
209, 209, 210, 250, 249
210, 210, 211, 251, 250
211, 211, 212, 252, 251
212, 212, 213, 253, 252
213, 213, 214, 254, 253
214, 214, 215, 255, 254
215, 215, 216, 256, 255
216, 216, 217, 257, 256
217, 217, 218, 258, 257
218, 218, 219, 259, 258
219, 219, 220, 260, 259
220, 220, 221, 261, 260
221, 221, 222, 262, 261
222, 222, 223, 263, 262
223, 223, 224, 264, 263
224, 224, 225, 265, 264
225, 225, 226, 266, 265
226, 226, 227, 267, 266
227, 227, 228, 268, 267
228, 228, 229, 269, 268
229, 229, 230, 270, 269
230, 230, 231, 271, 270
231, 231, 232, 272, 271
232, 232, 233, 273, 272
233, 233, 234, 274, 273
234, 234, 235, 275, 274
235, 235, 236, 276, 275
236, 236, 237, 277, 276
237, 237, 238, 278, 277
238, 238, 239, 279, 278
239, 239, 240, 280, 279
240, 240, 201, 241, 280
241, 241, 242, 282, 281
242, 242, 243, 283, 282
243, 243, 244, 284, 283
244, 244, 245, 285, 284
245, 245, 246, 286, 285
246, 246, 247, 287, 286
247, 247, 248, 288, 287
248, 248, 249, 289, 288
249, 249, 250, 290, 289
250, 250, 251, 291, 290
251, 251, 252, 292, 291
252, 252, 253, 293, 292
253, 253, 254, 294, 293
254, 254, 255, 295, 294
255, 255, 256, 296, 295
256, 256, 257, 297, 296
257, 257, 258, 298, 297
258, 258, 259, 299, 298
259, 259, 260, 300, 299
260, 260, 261, 301, 300
261, 261, 262, 302, 301
262, 262, 263, 303, 302
263, 263, 264, 304, 303
264, 264, 265, 305, 304
265, 265, 266, 306, 305
266, 266, 267, 307, 306
267, 267, 268, 308, 307
268, 268, 269, 309, 308
269, 269, 270, 310, 309
270, 270, 271, 311, 310
271, 271, 272, 312, 311
272, 272, 273, 313, 312
273, 273, 274, 314, 313
274, 274, 275, 315, 314
275, 275, 276, 316, 315
276, 276, 277, 317, 316
277, 277, 278, 318, 317
278, 278, 279, 319, 318
279, 279, 280, 320, 319
280, 280, 241, 281, 320
281, 281, 282, 322, 321
282, 282, 283, 323, 322
283, 283, 284, 324, 323
284, 284, 285, 325, 324
285, 285, 286, 326, 325
286, 286, 287, 327, 326
287, 287, 288, 328, 327
288, 288, 289, 329, 328
289, 289, 290, 330, 329
290, 290, 291, 331, 330
291, 291, 292, 332, 331
292, 292, 293, 333, 332
293, 293, 294, 334, 333
294, 294, 295, 335, 334
295, 295, 296, 336, 335
296, 296, 297, 337, 336
297, 297, 298, 338, 337
298, 298, 299, 339, 338
299, 299, 300, 340, 339
300, 300, 301, 341, 340
301, 301, 302, 342, 341
302, 302, 303, 343, 342
303, 303, 304, 344, 343
304, 304, 305, 345, 344
305, 305, 306, 346, 345
306, 306, 307, 347, 346
307, 307, 308, 348, 347
308, 308, 309, 349, 348
309, 309, 310, 350, 349
310, 310, 311, 351, 350
311, 311, 312, 352, 351
312, 312, 313, 353, 352
313, 313, 314, 354, 353
314, 314, 315, 355, 354
315, 315, 316, 356, 355
316, 316, 317, 357, 356
317, 317, 318, 358, 357
318, 318, 319, 359, 358
319, 319, 320, 360, 359
320, 320, 281, 321, 360
321, 321, 322, 362, 361
322, 322, 323, 363, 362
323, 323, 324, 364, 363
324, 324, 325, 365, 364
325, 325, 326, 366, 365
326, 326, 327, 367, 366
327, 327, 328, 368, 367
328, 328, 329, 369, 368
329, 329, 330, 370, 369
330, 330, 331, 371, 370
331, 331, 332, 372, 371
332, 332, 333, 373, 372
333, 333, 334, 374, 373
334, 334, 335, 375, 374
335, 335, 336, 376, 375
336, 336, 337, 377, 376
337, 337, 338, 378, 377
338, 338, 339, 379, 378
339, 339, 340, 380, 379
340, 340, 341, 381, 380
341, 341, 342, 382, 381
342, 342, 343, 383, 382
343, 343, 344, 384, 383
344, 344, 345, 385, 384
345, 345, 346, 386, 385
346, 346, 347, 387, 386
347, 347, 348, 388, 387
348, 348, 349, 389, 388
349, 349, 350, 390, 389
350, 350, 351, 391, 390
351, 351, 352, 392, 391
352, 352, 353, 393, 392
353, 353, 354, 394, 393
354, 354, 355, 395, 394
355, 355, 356, 396, 395
356, 356, 357, 397, 396
357, 357, 358, 398, 397
358, 358, 359, 399, 398
359, 359, 360, 400, 399
360, 360, 321, 361, 400
361, 361, 362, 402, 401
362, 362, 363, 403, 402
363, 363, 364, 404, 403
364, 364, 365, 405, 404
365, 365, 366, 406, 405
366, 366, 367, 407, 406
367, 367, 368, 408, 407
368, 368, 369, 409, 408
369, 369, 370, 410, 409
370, 370, 371, 411, 410
371, 371, 372, 412, 411
372, 372, 373, 413, 412
373, 373, 374, 414, 413
374, 374, 375, 415, 414
375, 375, 376, 416, 415
376, 376, 377, 417, 416
377, 377, 378, 418, 417
378, 378, 379, 419, 418
379, 379, 380, 420, 419
380, 380, 381, 421, 420
381, 381, 382, 422, 421
382, 382, 383, 423, 422
383, 383, 384, 424, 423
384, 384, 385, 425, 424
385, 385, 386, 426, 425
386, 386, 387, 427, 426
387, 387, 388, 428, 427
388, 388, 389, 429, 428
389, 389, 390, 430, 429
390, 390, 391, 431, 430
391, 391, 392, 432, 431
392, 392, 393, 433, 432
393, 393, 394, 434, 433
394, 394, 395, 435, 434
395, 395, 396, 436, 435
396, 396, 397, 437, 436
397, 397, 398, 438, 437
398, 398, 399, 439, 438
399, 399, 400, 440, 439
400, 400, 361, 401, 440
401, 401, 402, 442, 441
402, 402, 403, 443, 442
403, 403, 404, 444, 443
404, 404, 405, 445, 444
405, 405, 406, 446, 445
406, 406, 407, 447, 446
407, 407, 408, 448, 447
408, 408, 409, 449, 448
409, 409, 410, 450, 449
410, 410, 411, 451, 450
411, 411, 412, 452, 451
412, 412, 413, 453, 452
413, 413, 414, 454, 453
414, 414, 415, 455, 454
415, 415, 416, 456, 455
416, 416, 417, 457, 456
417, 417, 418, 458, 457
418, 418, 419, 459, 458
419, 419, 420, 460, 459
420, 420, 421, 461, 460
421, 421, 422, 462, 461
422, 422, 423, 463, 462
423, 423, 424, 464, 463
424, 424, 425, 465, 464
425, 425, 426, 466, 465
426, 426, 427, 467, 466
427, 427, 428, 468, 467
428, 428, 429, 469, 468
429, 429, 430, 470, 469
430, 430, 431, 471, 470
431, 431, 432, 472, 471
432, 432, 433, 473, 472
433, 433, 434, 474, 473
434, 434, 435, 475, 474
435, 435, 436, 476, 475
436, 436, 437, 477, 476
437, 437, 438, 478, 477
438, 438, 439, 479, 478
439, 439, 440, 480, 479
440, 440, 401, 441, 480
441, 441, 442, 482, 481
442, 442, 443, 483, 482
443, 443, 444, 484, 483
444, 444, 445, 485, 484
445, 445, 446, 486, 485
446, 446, 447, 487, 486
447, 447, 448, 488, 487
448, 448, 449, 489, 488
449, 449, 450, 490, 489
450, 450, 451, 491, 490
451, 451, 452, 492, 491
452, 452, 453, 493, 492
453, 453, 454, 494, 493
454, 454, 455, 495, 494
455, 455, 456, 496, 495
456, 456, 457, 497, 496
457, 457, 458, 498, 497
458, 458, 459, 499, 498
459, 459, 460, 500, 499
460, 460, 461, 501, 500
461, 461, 462, 502, 501
462, 462, 463, 503, 502
463, 463, 464, 504, 503
464, 464, 465, 505, 504
465, 465, 466, 506, 505
466, 466, 467, 507, 506
467, 467, 468, 508, 507
468, 468, 469, 509, 508
469, 469, 470, 510, 509
470, 470, 471, 511, 510
471, 471, 472, 512, 511
472, 472, 473, 513, 512
473, 473, 474, 514, 513
474, 474, 475, 515, 514
475, 475, 476, 516, 515
476, 476, 477, 517, 516
477, 477, 478, 518, 517
478, 478, 479, 519, 518
479, 479, 480, 520, 519
480, 480, 441, 481, 520
481, 481, 482, 522, 521
482, 482, 483, 523, 522
483, 483, 484, 524, 523
484, 484, 485, 525, 524
485, 485, 486, 526, 525
486, 486, 487, 527, 526
487, 487, 488, 528, 527
488, 488, 489, 529, 528
489, 489, 490, 530, 529
490, 490, 491, 531, 530
491, 491, 492, 532, 531
492, 492, 493, 533, 532
493, 493, 494, 534, 533
494, 494, 495, 535, 534
495, 495, 496, 536, 535
496, 496, 497, 537, 536
497, 497, 498, 538, 537
498, 498, 499, 539, 538
499, 499, 500, 540, 539
500, 500, 501, 541, 540
501, 501, 502, 542, 541
502, 502, 503, 543, 542
503, 503, 504, 544, 543
504, 504, 505, 545, 544
505, 505, 506, 546, 545
506, 506, 507, 547, 546
507, 507, 508, 548, 547
508, 508, 509, 549, 548
509, 509, 510, 550, 549
510, 510, 511, 551, 550
511, 511, 512, 552, 551
512, 512, 513, 553, 552
513, 513, 514, 554, 553
514, 514, 515, 555, 554
515, 515, 516, 556, 555
516, 516, 517, 557, 556
517, 517, 518, 558, 557
518, 518, 519, 559, 558
519, 519, 520, 560, 559
520, 520, 481, 521, 560
521, 521, 522, 562, 561
522, 522, 523, 563, 562
523, 523, 524, 564, 563
524, 524, 525, 565, 564
525, 525, 526, 566, 565
526, 526, 527, 567, 566
527, 527, 528, 568, 567
528, 528, 529, 569, 568
529, 529, 530, 570, 569
530, 530, 531, 571, 570
531, 531, 532, 572, 571
532, 532, 533, 573, 572
533, 533, 534, 574, 573
534, 534, 535, 575, 574
535, 535, 536, 576, 575
536, 536, 537, 577, 576
537, 537, 538, 578, 577
538, 538, 539, 579, 578
539, 539, 540, 580, 579
540, 540, 541, 581, 580
541, 541, 542, 582, 581
542, 542, 543, 583, 582
543, 543, 544, 584, 583
544, 544, 545, 585, 584
545, 545, 546, 586, 585
546, 546, 547, 587, 586
547, 547, 548, 588, 587
548, 548, 549, 589, 588
549, 549, 550, 590, 589
550, 550, 551, 591, 590
551, 551, 552, 592, 591
552, 552, 553, 593, 592
553, 553, 554, 594, 593
554, 554, 555, 595, 594
555, 555, 556, 596, 595
556, 556, 557, 597, 596
557, 557, 558, 598, 597
558, 558, 559, 599, 598
559, 559, 560, 600, 599
560, 560, 521, 561, 600
561, 561, 562, 602, 601
562, 562, 563, 603, 602
563, 563, 564, 604, 603
564, 564, 565, 605, 604
565, 565, 566, 606, 605
566, 566, 567, 607, 606
567, 567, 568, 608, 607
568, 568, 569, 609, 608
569, 569, 570, 610, 609
570, 570, 571, 611, 610
571, 571, 572, 612, 611
572, 572, 573, 613, 612
573, 573, 574, 614, 613
574, 574, 575, 615, 614
575, 575, 576, 616, 615
576, 576, 577, 617, 616
577, 577, 578, 618, 617
578, 578, 579, 619, 618
579, 579, 580, 620, 619
580, 580, 581, 621, 620
581, 581, 582, 622, 621
582, 582, 583, 623, 622
583, 583, 584, 624, 623
584, 584, 585, 625, 624
585, 585, 586, 626, 625
586, 586, 587, 627, 626
587, 587, 588, 628, 627
588, 588, 589, 629, 628
589, 589, 590, 630, 629
590, 590, 591, 631, 630
591, 591, 592, 632, 631
592, 592, 593, 633, 632
593, 593, 594, 634, 633
594, 594, 595, 635, 634
595, 595, 596, 636, 635
596, 596, 597, 637, 636
597, 597, 598, 638, 637
598, 598, 599, 639, 638
599, 599, 600, 640, 639
600, 600, 561, 601, 640
601, 601, 602, 642, 641
602, 602, 603, 643, 642
603, 603, 604, 644, 643
604, 604, 605, 645, 644
605, 605, 606, 646, 645
606, 606, 607, 647, 646
607, 607, 608, 648, 647
608, 608, 609, 649, 648
609, 609, 610, 650, 649
610, 610, 611, 651, 650
611, 611, 612, 652, 651
612, 612, 613, 653, 652
613, 613, 614, 654, 653
614, 614, 615, 655, 654
615, 615, 616, 656, 655
616, 616, 617, 657, 656
617, 617, 618, 658, 657
618, 618, 619, 659, 658
619, 619, 620, 660, 659
620, 620, 621, 661, 660
621, 621, 622, 662, 661
622, 622, 623, 663, 662
623, 623, 624, 664, 663
624, 624, 625, 665, 664
625, 625, 626, 666, 665
626, 626, 627, 667, 666
627, 627, 628, 668, 667
628, 628, 629, 669, 668
629, 629, 630, 670, 669
630, 630, 631, 671, 670
631, 631, 632, 672, 671
632, 632, 633, 673, 672
633, 633, 634, 674, 673
634, 634, 635, 675, 674
635, 635, 636, 676, 675
636, 636, 637, 677, 676
637, 637, 638, 678, 677
638, 638, 639, 679, 678
639, 639, 640, 680, 679
640, 640, 601, 641, 680
641, 641, 642, 682, 681
642, 642, 643, 683, 682
643, 643, 644, 684, 683
644, 644, 645, 685, 684
645, 645, 646, 686, 685
646, 646, 647, 687, 686
647, 647, 648, 688, 687
648, 648, 649, 689, 688
649, 649, 650, 690, 689
650, 650, 651, 691, 690
651, 651, 652, 692, 691
652, 652, 653, 693, 692
653, 653, 654, 694, 693
654, 654, 655, 695, 694
655, 655, 656, 696, 695
656, 656, 657, 697, 696
657, 657, 658, 698, 697
658, 658, 659, 699, 698
659, 659, 660, 700, 699
660, 660, 661, 701, 700
661, 661, 662, 702, 701
662, 662, 663, 703, 702
663, 663, 664, 704, 703
664, 664, 665, 705, 704
665, 665, 666, 706, 705
666, 666, 667, 707, 706
667, 667, 668, 708, 707
668, 668, 669, 709, 708
669, 669, 670, 710, 709
670, 670, 671, 711, 710
671, 671, 672, 712, 711
672, 672, 673, 713, 712
673, 673, 674, 714, 713
674, 674, 675, 715, 714
675, 675, 676, 716, 715
676, 676, 677, 717, 716
677, 677, 678, 718, 717
678, 678, 679, 719, 718
679, 679, 680, 720, 719
680, 680, 641, 681, 720
681, 681, 682, 722, 721
682, 682, 683, 723, 722
683, 683, 684, 724, 723
684, 684, 685, 725, 724
685, 685, 686, 726, 725
686, 686, 687, 727, 726
687, 687, 688, 728, 727
688, 688, 689, 729, 728
689, 689, 690, 730, 729
690, 690, 691, 731, 730
691, 691, 692, 732, 731
692, 692, 693, 733, 732
693, 693, 694, 734, 733
694, 694, 695, 735, 734
695, 695, 696, 736, 735
696, 696, 697, 737, 736
697, 697, 698, 738, 737
698, 698, 699, 739, 738
699, 699, 700, 740, 739
700, 700, 701, 741, 740
701, 701, 702, 742, 741
702, 702, 703, 743, 742
703, 703, 704, 744, 743
704, 704, 705, 745, 744
705, 705, 706, 746, 745
706, 706, 707, 747, 746
707, 707, 708, 748, 747
708, 708, 709, 749, 748
709, 709, 710, 750, 749
710, 710, 711, 751, 750
711, 711, 712, 752, 751
712, 712, 713, 753, 752
713, 713, 714, 754, 753
714, 714, 715, 755, 754
715, 715, 716, 756, 755
716, 716, 717, 757, 756
717, 717, 718, 758, 757
718, 718, 719, 759, 758
719, 719, 720, 760, 759
720, 720, 681, 721, 760
721, 721, 722, 762, 761
722, 722, 723, 763, 762
723, 723, 724, 764, 763
724, 724, 725, 765, 764
725, 725, 726, 766, 765
726, 726, 727, 767, 766
727, 727, 728, 768, 767
728, 728, 729, 769, 768
729, 729, 730, 770, 769
730, 730, 731, 771, 770
731, 731, 732, 772, 771
732, 732, 733, 773, 772
733, 733, 734, 774, 773
734, 734, 735, 775, 774
735, 735, 736, 776, 775
736, 736, 737, 777, 776
737, 737, 738, 778, 777
738, 738, 739, 779, 778
739, 739, 740, 780, 779
740, 740, 741, 781, 780
741, 741, 742, 782, 781
742, 742, 743, 783, 782
743, 743, 744, 784, 783
744, 744, 745, 785, 784
745, 745, 746, 786, 785
746, 746, 747, 787, 786
747, 747, 748, 788, 787
748, 748, 749, 789, 788
749, 749, 750, 790, 789
750, 750, 751, 791, 790
751, 751, 752, 792, 791
752, 752, 753, 793, 792
753, 753, 754, 794, 793
754, 754, 755, 795, 794
755, 755, 756, 796, 795
756, 756, 757, 797, 796
757, 757, 758, 798, 797
758, 758, 759, 799, 798
759, 759, 760, 800, 799
760, 760, 721, 761, 800
761, 761, 762, 802, 801
762, 762, 763, 803, 802
763, 763, 764, 804, 803
764, 764, 765, 805, 804
765, 765, 766, 806, 805
766, 766, 767, 807, 806
767, 767, 768, 808, 807
768, 768, 769, 809, 808
769, 769, 770, 810, 809
770, 770, 771, 811, 810
771, 771, 772, 812, 811
772, 772, 773, 813, 812
773, 773, 774, 814, 813
774, 774, 775, 815, 814
775, 775, 776, 816, 815
776, 776, 777, 817, 816
777, 777, 778, 818, 817
778, 778, 779, 819, 818
779, 779, 780, 820, 819
780, 780, 781, 821, 820
781, 781, 782, 822, 821
782, 782, 783, 823, 822
783, 783, 784, 824, 823
784, 784, 785, 825, 824
785, 785, 786, 826, 825
786, 786, 787, 827, 826
787, 787, 788, 828, 827
788, 788, 789, 829, 828
789, 789, 790, 830, 829
790, 790, 791, 831, 830
791, 791, 792, 832, 831
792, 792, 793, 833, 832
793, 793, 794, 834, 833
794, 794, 795, 835, 834
795, 795, 796, 836, 835
796, 796, 797, 837, 836
797, 797, 798, 838, 837
798, 798, 799, 839, 838
799, 799, 800, 840, 839
800, 800, 761, 801, 840
*NSET, NSET=NALL
1, 2, 3, 4, 5, 6, 7, 8, 9, 10, 11, 12, 13, 14, 15, 16
17, 18, 19, 20, 21, 22, 23, 24, 25, 26, 27, 28, 29, 30, 31, 32
33, 34, 35, 36, 37, 38, 39, 40, 41, 42, 43, 44, 45, 46, 47, 48
49, 50, 51, 52, 53, 54, 55, 56, 57, 58, 59, 60, 61, 62, 63, 64
65, 66, 67, 68, 69, 70, 71, 72, 73, 74, 75, 76, 77, 78, 79, 80
81, 82, 83, 84, 85, 86, 87, 88, 89, 90, 91, 92, 93, 94, 95, 96
97, 98, 99, 100, 101, 102, 103, 104, 105, 106, 107, 108, 109, 110, 111, 112
113, 114, 115, 116, 117, 118, 119, 120, 121, 122, 123, 124, 125, 126, 127, 128
129, 130, 131, 132, 133, 134, 135, 136, 137, 138, 139, 140, 141, 142, 143, 144
145, 146, 147, 148, 149, 150, 151, 152, 153, 154, 155, 156, 157, 158, 159, 160
161, 162, 163, 164, 165, 166, 167, 168, 169, 170, 171, 172, 173, 174, 175, 176
177, 178, 179, 180, 181, 182, 183, 184, 185, 186, 187, 188, 189, 190, 191, 192
193, 194, 195, 196, 197, 198, 199, 200, 201, 202, 203, 204, 205, 206, 207, 208
209, 210, 211, 212, 213, 214, 215, 216, 217, 218, 219, 220, 221, 222, 223, 224
225, 226, 227, 228, 229, 230, 231, 232, 233, 234, 235, 236, 237, 238, 239, 240
241, 242, 243, 244, 245, 246, 247, 248, 249, 250, 251, 252, 253, 254, 255, 256
257, 258, 259, 260, 261, 262, 263, 264, 265, 266, 267, 268, 269, 270, 271, 272
273, 274, 275, 276, 277, 278, 279, 280, 281, 282, 283, 284, 285, 286, 287, 288
289, 290, 291, 292, 293, 294, 295, 296, 297, 298, 299, 300, 301, 302, 303, 304
305, 306, 307, 308, 309, 310, 311, 312, 313, 314, 315, 316, 317, 318, 319, 320
321, 322, 323, 324, 325, 326, 327, 328, 329, 330, 331, 332, 333, 334, 335, 336
337, 338, 339, 340, 341, 342, 343, 344, 345, 346, 347, 348, 349, 350, 351, 352
353, 354, 355, 356, 357, 358, 359, 360, 361, 362, 363, 364, 365, 366, 367, 368
369, 370, 371, 372, 373, 374, 375, 376, 377, 378, 379, 380, 381, 382, 383, 384
385, 386, 387, 388, 389, 390, 391, 392, 393, 394, 395, 396, 397, 398, 399, 400
401, 402, 403, 404, 405, 406, 407, 408, 409, 410, 411, 412, 413, 414, 415, 416
417, 418, 419, 420, 421, 422, 423, 424, 425, 426, 427, 428, 429, 430, 431, 432
433, 434, 435, 436, 437, 438, 439, 440, 441, 442, 443, 444, 445, 446, 447, 448
449, 450, 451, 452, 453, 454, 455, 456, 457, 458, 459, 460, 461, 462, 463, 464
465, 466, 467, 468, 469, 470, 471, 472, 473, 474, 475, 476, 477, 478, 479, 480
481, 482, 483, 484, 485, 486, 487, 488, 489, 490, 491, 492, 493, 494, 495, 496
497, 498, 499, 500, 501, 502, 503, 504, 505, 506, 507, 508, 509, 510, 511, 512
513, 514, 515, 516, 517, 518, 519, 520, 521, 522, 523, 524, 525, 526, 527, 528
529, 530, 531, 532, 533, 534, 535, 536, 537, 538, 539, 540, 541, 542, 543, 544
545, 546, 547, 548, 549, 550, 551, 552, 553, 554, 555, 556, 557, 558, 559, 560
561, 562, 563, 564, 565, 566, 567, 568, 569, 570, 571, 572, 573, 574, 575, 576
577, 578, 579, 580, 581, 582, 583, 584, 585, 586, 587, 588, 589, 590, 591, 592
593, 594, 595, 596, 597, 598, 599, 600, 601, 602, 603, 604, 605, 606, 607, 608
609, 610, 611, 612, 613, 614, 615, 616, 617, 618, 619, 620, 621, 622, 623, 624
625, 626, 627, 628, 629, 630, 631, 632, 633, 634, 635, 636, 637, 638, 639, 640
641, 642, 643, 644, 645, 646, 647, 648, 649, 650, 651, 652, 653, 654, 655, 656
657, 658, 659, 660, 661, 662, 663, 664, 665, 666, 667, 668, 669, 670, 671, 672
673, 674, 675, 676, 677, 678, 679, 680, 681, 682, 683, 684, 685, 686, 687, 688
689, 690, 691, 692, 693, 694, 695, 696, 697, 698, 699, 700, 701, 702, 703, 704
705, 706, 707, 708, 709, 710, 711, 712, 713, 714, 715, 716, 717, 718, 719, 720
721, 722, 723, 724, 725, 726, 727, 728, 729, 730, 731, 732, 733, 734, 735, 736
737, 738, 739, 740, 741, 742, 743, 744, 745, 746, 747, 748, 749, 750, 751, 752
753, 754, 755, 756, 757, 758, 759, 760, 761, 762, 763, 764, 765, 766, 767, 768
769, 770, 771, 772, 773, 774, 775, 776, 777, 778, 779, 780, 781, 782, 783, 784
785, 786, 787, 788, 789, 790, 791, 792, 793, 794, 795, 796, 797, 798, 799, 800
801, 802, 803, 804, 805, 806, 807, 808, 809, 810, 811, 812, 813, 814, 815, 816
817, 818, 819, 820, 821, 822, 823, 824, 825, 826, 827, 828, 829, 830, 831, 832
833, 834, 835, 836, 837, 838, 839, 840
*NSET, NSET=NBASE
1, 2, 3, 4, 5, 6, 7, 8, 9, 10, 11, 12, 13, 14, 15, 16
17, 18, 19, 20, 21, 22, 23, 24, 25, 26, 27, 28, 29, 30, 31, 32
33, 34, 35, 36, 37, 38, 39, 40
*NSET, NSET=NTOP
801, 802, 803, 804, 805, 806, 807, 808, 809, 810, 811, 812, 813, 814, 815, 816
817, 818, 819, 820, 821, 822, 823, 824, 825, 826, 827, 828, 829, 830, 831, 832
833, 834, 835, 836, 837, 838, 839, 840
*ELSET, ELSET=WIND_SEC_01
1, 41, 81, 121, 161, 201, 241, 281, 321, 361, 401, 441, 481, 521, 561, 601
641, 681, 721, 761
*ELSET, ELSET=WIND_SEC_02
2, 42, 82, 122, 162, 202, 242, 282, 322, 362, 402, 442, 482, 522, 562, 602
642, 682, 722, 762
*ELSET, ELSET=WIND_SEC_03
3, 43, 83, 123, 163, 203, 243, 283, 323, 363, 403, 443, 483, 523, 563, 603
643, 683, 723, 763
*ELSET, ELSET=WIND_SEC_04
4, 44, 84, 124, 164, 204, 244, 284, 324, 364, 404, 444, 484, 524, 564, 604
644, 684, 724, 764
*ELSET, ELSET=WIND_SEC_05
5, 45, 85, 125, 165, 205, 245, 285, 325, 365, 405, 445, 485, 525, 565, 605
645, 685, 725, 765
*ELSET, ELSET=WIND_SEC_06
6, 46, 86, 126, 166, 206, 246, 286, 326, 366, 406, 446, 486, 526, 566, 606
646, 686, 726, 766
*ELSET, ELSET=WIND_SEC_07
7, 47, 87, 127, 167, 207, 247, 287, 327, 367, 407, 447, 487, 527, 567, 607
647, 687, 727, 767
*ELSET, ELSET=WIND_SEC_08
8, 48, 88, 128, 168, 208, 248, 288, 328, 368, 408, 448, 488, 528, 568, 608
648, 688, 728, 768
*ELSET, ELSET=WIND_SEC_09
9, 49, 89, 129, 169, 209, 249, 289, 329, 369, 409, 449, 489, 529, 569, 609
649, 689, 729, 769
*ELSET, ELSET=WIND_SEC_10
10, 50, 90, 130, 170, 210, 250, 290, 330, 370, 410, 450, 490, 530, 570, 610
650, 690, 730, 770
*ELSET, ELSET=WIND_SEC_11
11, 51, 91, 131, 171, 211, 251, 291, 331, 371, 411, 451, 491, 531, 571, 611
651, 691, 731, 771
*ELSET, ELSET=WIND_SEC_12
12, 52, 92, 132, 172, 212, 252, 292, 332, 372, 412, 452, 492, 532, 572, 612
652, 692, 732, 772
*ELSET, ELSET=WIND_SEC_13
13, 53, 93, 133, 173, 213, 253, 293, 333, 373, 413, 453, 493, 533, 573, 613
653, 693, 733, 773
*ELSET, ELSET=WIND_SEC_14
14, 54, 94, 134, 174, 214, 254, 294, 334, 374, 414, 454, 494, 534, 574, 614
654, 694, 734, 774
*ELSET, ELSET=WIND_SEC_15
15, 55, 95, 135, 175, 215, 255, 295, 335, 375, 415, 455, 495, 535, 575, 615
655, 695, 735, 775
*ELSET, ELSET=WIND_SEC_16
16, 56, 96, 136, 176, 216, 256, 296, 336, 376, 416, 456, 496, 536, 576, 616
656, 696, 736, 776
*ELSET, ELSET=WIND_SEC_17
17, 57, 97, 137, 177, 217, 257, 297, 337, 377, 417, 457, 497, 537, 577, 617
657, 697, 737, 777
*ELSET, ELSET=WIND_SEC_18
18, 58, 98, 138, 178, 218, 258, 298, 338, 378, 418, 458, 498, 538, 578, 618
658, 698, 738, 778
*ELSET, ELSET=WIND_SEC_19
19, 59, 99, 139, 179, 219, 259, 299, 339, 379, 419, 459, 499, 539, 579, 619
659, 699, 739, 779
*ELSET, ELSET=WIND_SEC_20
20, 60, 100, 140, 180, 220, 260, 300, 340, 380, 420, 460, 500, 540, 580, 620
660, 700, 740, 780
*ELSET, ELSET=WIND_SEC_21
21, 61, 101, 141, 181, 221, 261, 301, 341, 381, 421, 461, 501, 541, 581, 621
661, 701, 741, 781
*ELSET, ELSET=WIND_SEC_22
22, 62, 102, 142, 182, 222, 262, 302, 342, 382, 422, 462, 502, 542, 582, 622
662, 702, 742, 782
*ELSET, ELSET=WIND_SEC_23
23, 63, 103, 143, 183, 223, 263, 303, 343, 383, 423, 463, 503, 543, 583, 623
663, 703, 743, 783
*ELSET, ELSET=WIND_SEC_24
24, 64, 104, 144, 184, 224, 264, 304, 344, 384, 424, 464, 504, 544, 584, 624
664, 704, 744, 784
*ELSET, ELSET=WIND_SEC_25
25, 65, 105, 145, 185, 225, 265, 305, 345, 385, 425, 465, 505, 545, 585, 625
665, 705, 745, 785
*ELSET, ELSET=WIND_SEC_26
26, 66, 106, 146, 186, 226, 266, 306, 346, 386, 426, 466, 506, 546, 586, 626
666, 706, 746, 786
*ELSET, ELSET=WIND_SEC_27
27, 67, 107, 147, 187, 227, 267, 307, 347, 387, 427, 467, 507, 547, 587, 627
667, 707, 747, 787
*ELSET, ELSET=WIND_SEC_28
28, 68, 108, 148, 188, 228, 268, 308, 348, 388, 428, 468, 508, 548, 588, 628
668, 708, 748, 788
*ELSET, ELSET=WIND_SEC_29
29, 69, 109, 149, 189, 229, 269, 309, 349, 389, 429, 469, 509, 549, 589, 629
669, 709, 749, 789
*ELSET, ELSET=WIND_SEC_30
30, 70, 110, 150, 190, 230, 270, 310, 350, 390, 430, 470, 510, 550, 590, 630
670, 710, 750, 790
*ELSET, ELSET=WIND_SEC_31
31, 71, 111, 151, 191, 231, 271, 311, 351, 391, 431, 471, 511, 551, 591, 631
671, 711, 751, 791
*ELSET, ELSET=WIND_SEC_32
32, 72, 112, 152, 192, 232, 272, 312, 352, 392, 432, 472, 512, 552, 592, 632
672, 712, 752, 792
*ELSET, ELSET=WIND_SEC_33
33, 73, 113, 153, 193, 233, 273, 313, 353, 393, 433, 473, 513, 553, 593, 633
673, 713, 753, 793
*ELSET, ELSET=WIND_SEC_34
34, 74, 114, 154, 194, 234, 274, 314, 354, 394, 434, 474, 514, 554, 594, 634
674, 714, 754, 794
*ELSET, ELSET=WIND_SEC_35
35, 75, 115, 155, 195, 235, 275, 315, 355, 395, 435, 475, 515, 555, 595, 635
675, 715, 755, 795
*ELSET, ELSET=WIND_SEC_36
36, 76, 116, 156, 196, 236, 276, 316, 356, 396, 436, 476, 516, 556, 596, 636
676, 716, 756, 796
*ELSET, ELSET=WIND_SEC_37
37, 77, 117, 157, 197, 237, 277, 317, 357, 397, 437, 477, 517, 557, 597, 637
677, 717, 757, 797
*ELSET, ELSET=WIND_SEC_38
38, 78, 118, 158, 198, 238, 278, 318, 358, 398, 438, 478, 518, 558, 598, 638
678, 718, 758, 798
*ELSET, ELSET=WIND_SEC_39
39, 79, 119, 159, 199, 239, 279, 319, 359, 399, 439, 479, 519, 559, 599, 639
679, 719, 759, 799
*ELSET, ELSET=WIND_SEC_40
40, 80, 120, 160, 200, 240, 280, 320, 360, 400, 440, 480, 520, 560, 600, 640
680, 720, 760, 800
*MATERIAL, NAME=EquivalentReinforcedConcrete_C30_37
*ELASTIC
33000000000.000000, 0.200000
*DENSITY
2500.000000
*SHELL SECTION, ELSET=EALL, MATERIAL=EquivalentReinforcedConcrete_C30_37
0.200000
*BOUNDARY
NBASE, 1, 6
*STEP, NAME=STATIC_WIND, NLGEOM=NO
*STATIC
0.1, 1.0, 1e-05, 1.0
*DLOAD
EALL, GRAV, 9.810000, 0.000000, -1.000000, 0.000000
*OUTPUT, FIELD, FREQUENCY=1
*NODE OUTPUT, NSET=NALL
U
*NODE OUTPUT, NSET=NBASE
RF
*ELEMENT OUTPUT, ELSET=EALL
S, E
*END STEP
