*HEADING
** Task 7 generated input for S8 / BFGS (warning_noncompliant)
*PREPRINT, ECHO=NO, MODEL=NO, HISTORY=NO, CONTACT=NO
*NODE
1, 39.300000, 0.000000, 0.000000
2, 38.816152, 0.000000, 6.147874
3, 37.376521, 0.000000, 12.144368
4, 35.016556, 0.000000, 17.841827
5, 31.794368, 0.000000, 23.099960
6, 27.789297, 0.000000, 27.789297
7, 23.099960, 0.000000, 31.794368
8, 17.841827, 0.000000, 35.016556
9, 12.144368, 0.000000, 37.376521
10, 6.147874, 0.000000, 38.816152
11, 0.000000, 0.000000, 39.300000
12, -6.147874, 0.000000, 38.816152
13, -12.144368, 0.000000, 37.376521
14, -17.841827, 0.000000, 35.016556
15, -23.099960, 0.000000, 31.794368
16, -27.789297, 0.000000, 27.789297
17, -31.794368, 0.000000, 23.099960
18, -35.016556, 0.000000, 17.841827
19, -37.376521, 0.000000, 12.144368
20, -38.816152, 0.000000, 6.147874
21, -39.300000, 0.000000, 0.000000
22, -38.816152, 0.000000, -6.147874
23, -37.376521, 0.000000, -12.144368
24, -35.016556, 0.000000, -17.841827
25, -31.794368, 0.000000, -23.099960
26, -27.789297, 0.000000, -27.789297
27, -23.099960, 0.000000, -31.794368
28, -17.841827, 0.000000, -35.016556
29, -12.144368, 0.000000, -37.376521
30, -6.147874, 0.000000, -38.816152
31, -0.000000, 0.000000, -39.300000
32, 6.147874, 0.000000, -38.816152
33, 12.144368, 0.000000, -37.376521
34, 17.841827, 0.000000, -35.016556
35, 23.099960, 0.000000, -31.794368
36, 27.789297, 0.000000, -27.789297
37, 31.794368, 0.000000, -23.099960
38, 35.016556, 0.000000, -17.841827
39, 37.376521, 0.000000, -12.144368
40, 38.816152, 0.000000, -6.147874
41, 37.776307, 0.749949, 0.000000
42, 37.311218, 0.749949, 5.909516
43, 35.927403, 0.749949, 11.673521
44, 33.658936, 0.749949, 17.150084
45, 30.561674, 0.749949, 22.204356
46, 26.711883, 0.749949, 26.711883
47, 22.204356, 0.749949, 30.561674
48, 17.150084, 0.749949, 33.658936
49, 11.673521, 0.749949, 35.927403
50, 5.909516, 0.749949, 37.311218
51, 0.000000, 0.749949, 37.776307
52, -5.909516, 0.749949, 37.311218
53, -11.673521, 0.749949, 35.927403
54, -17.150084, 0.749949, 33.658936
55, -22.204356, 0.749949, 30.561674
56, -26.711883, 0.749949, 26.711883
57, -30.561674, 0.749949, 22.204356
58, -33.658936, 0.749949, 17.150084
59, -35.927403, 0.749949, 11.673521
60, -37.311218, 0.749949, 5.909516
61, -37.776307, 0.749949, 0.000000
62, -37.311218, 0.749949, -5.909516
63, -35.927403, 0.749949, -11.673521
64, -33.658936, 0.749949, -17.150084
65, -30.561674, 0.749949, -22.204356
66, -26.711883, 0.749949, -26.711883
67, -22.204356, 0.749949, -30.561674
68, -17.150084, 0.749949, -33.658936
69, -11.673521, 0.749949, -35.927403
70, -5.909516, 0.749949, -37.311218
71, -0.000000, 0.749949, -37.776307
72, 5.909516, 0.749949, -37.311218
73, 11.673521, 0.749949, -35.927403
74, 17.150084, 0.749949, -33.658936
75, 22.204356, 0.749949, -30.561674
76, 26.711883, 0.749949, -26.711883
77, 30.561674, 0.749949, -22.204356
78, 33.658936, 0.749949, -17.150084
79, 35.927403, 0.749949, -11.673521
80, 37.311218, 0.749949, -5.909516
81, 36.252614, 1.499899, 0.000000
82, 35.806284, 1.499899, 5.671158
83, 34.478284, 1.499899, 11.202674
84, 32.301315, 1.499899, 16.458342
85, 29.328981, 1.499899, 21.308752
86, 25.634469, 1.499899, 25.634469
87, 21.308752, 1.499899, 29.328981
88, 16.458342, 1.499899, 32.301315
89, 11.202674, 1.499899, 34.478284
90, 5.671158, 1.499899, 35.806284
91, 0.000000, 1.499899, 36.252614
92, -5.671158, 1.499899, 35.806284
93, -11.202674, 1.499899, 34.478284
94, -16.458342, 1.499899, 32.301315
95, -21.308752, 1.499899, 29.328981
96, -25.634469, 1.499899, 25.634469
97, -29.328981, 1.499899, 21.308752
98, -32.301315, 1.499899, 16.458342
99, -34.478284, 1.499899, 11.202674
100, -35.806284, 1.499899, 5.671158
101, -36.252614, 1.499899, 0.000000
102, -35.806284, 1.499899, -5.671158
103, -34.478284, 1.499899, -11.202674
104, -32.301315, 1.499899, -16.458342
105, -29.328981, 1.499899, -21.308752
106, -25.634469, 1.499899, -25.634469
107, -21.308752, 1.499899, -29.328981
108, -16.458342, 1.499899, -32.301315
109, -11.202674, 1.499899, -34.478284
110, -5.671158, 1.499899, -35.806284
111, -0.000000, 1.499899, -36.252614
112, 5.671158, 1.499899, -35.806284
113, 11.202674, 1.499899, -34.478284
114, 16.458342, 1.499899, -32.301315
115, 21.308752, 1.499899, -29.328981
116, 25.634469, 1.499899, -25.634469
117, 29.328981, 1.499899, -21.308752
118, 32.301315, 1.499899, -16.458342
119, 34.478284, 1.499899, -11.202674
120, 35.806284, 1.499899, -5.671158
121, 34.814113, 2.249864, 0.000000
122, 34.385493, 2.249864, 5.446127
123, 33.110189, 2.249864, 10.758152
124, 31.019602, 2.249864, 15.805276
125, 28.165209, 2.249864, 20.463222
126, 24.617295, 2.249864, 24.617295
127, 20.463222, 2.249864, 28.165209
128, 15.805276, 2.249864, 31.019602
129, 10.758152, 2.249864, 33.110189
130, 5.446127, 2.249864, 34.385493
131, 0.000000, 2.249864, 34.814113
132, -5.446127, 2.249864, 34.385493
133, -10.758152, 2.249864, 33.110189
134, -15.805276, 2.249864, 31.019602
135, -20.463222, 2.249864, 28.165209
136, -24.617295, 2.249864, 24.617295
137, -28.165209, 2.249864, 20.463222
138, -31.019602, 2.249864, 15.805276
139, -33.110189, 2.249864, 10.758152
140, -34.385493, 2.249864, 5.446127
141, -34.814113, 2.249864, 0.000000
142, -34.385493, 2.249864, -5.446127
143, -33.110189, 2.249864, -10.758152
144, -31.019602, 2.249864, -15.805276
145, -28.165209, 2.249864, -20.463222
146, -24.617295, 2.249864, -24.617295
147, -20.463222, 2.249864, -28.165209
148, -15.805276, 2.249864, -31.019602
149, -10.758152, 2.249864, -33.110189
150, -5.446127, 2.249864, -34.385493
151, -0.000000, 2.249864, -34.814113
152, 5.446127, 2.249864, -34.385493
153, 10.758152, 2.249864, -33.110189
154, 15.805276, 2.249864, -31.019602
155, 20.463222, 2.249864, -28.165209
156, 24.617295, 2.249864, -24.617295
157, 28.165209, 2.249864, -20.463222
158, 31.019602, 2.249864, -15.805276
159, 33.110189, 2.249864, -10.758152
160, 34.385493, 2.249864, -5.446127
161, 33.375612, 2.999829, 0.000000
162, 32.964703, 2.999829, 5.221096
163, 31.742093, 2.999829, 10.313631
164, 29.737888, 2.999829, 15.152211
165, 27.001437, 2.999829, 19.617692
166, 23.600121, 2.999829, 23.600121
167, 19.617692, 2.999829, 27.001437
168, 15.152211, 2.999829, 29.737888
169, 10.313631, 2.999829, 31.742093
170, 5.221096, 2.999829, 32.964703
171, 0.000000, 2.999829, 33.375612
172, -5.221096, 2.999829, 32.964703
173, -10.313631, 2.999829, 31.742093
174, -15.152211, 2.999829, 29.737888
175, -19.617692, 2.999829, 27.001437
176, -23.600121, 2.999829, 23.600121
177, -27.001437, 2.999829, 19.617692
178, -29.737888, 2.999829, 15.152211
179, -31.742093, 2.999829, 10.313631
180, -32.964703, 2.999829, 5.221096
181, -33.375612, 2.999829, 0.000000
182, -32.964703, 2.999829, -5.221096
183, -31.742093, 2.999829, -10.313631
184, -29.737888, 2.999829, -15.152211
185, -27.001437, 2.999829, -19.617692
186, -23.600121, 2.999829, -23.600121
187, -19.617692, 2.999829, -27.001437
188, -15.152211, 2.999829, -29.737888
189, -10.313631, 2.999829, -31.742093
190, -5.221096, 2.999829, -32.964703
191, -0.000000, 2.999829, -33.375612
192, 5.221096, 2.999829, -32.964703
193, 10.313631, 2.999829, -31.742093
194, 15.152211, 2.999829, -29.737888
195, 19.617692, 2.999829, -27.001437
196, 23.600121, 2.999829, -23.600121
197, 27.001437, 2.999829, -19.617692
198, 29.737888, 2.999829, -15.152211
199, 31.742093, 2.999829, -10.313631
200, 32.964703, 2.999829, -5.221096
201, 32.099510, 3.749808, 0.000000
202, 31.704311, 3.749808, 5.021470
203, 30.528448, 3.749808, 9.919294
204, 28.600873, 3.749808, 14.572872
205, 25.969049, 3.749808, 18.867618
206, 22.697781, 3.749808, 22.697781
207, 18.867618, 3.749808, 25.969049
208, 14.572872, 3.749808, 28.600873
209, 9.919294, 3.749808, 30.528448
210, 5.021470, 3.749808, 31.704311
211, 0.000000, 3.749808, 32.099510
212, -5.021470, 3.749808, 31.704311
213, -9.919294, 3.749808, 30.528448
214, -14.572872, 3.749808, 28.600873
215, -18.867618, 3.749808, 25.969049
216, -22.697781, 3.749808, 22.697781
217, -25.969049, 3.749808, 18.867618
218, -28.600873, 3.749808, 14.572872
219, -30.528448, 3.749808, 9.919294
220, -31.704311, 3.749808, 5.021470
221, -32.099510, 3.749808, 0.000000
222, -31.704311, 3.749808, -5.021470
223, -30.528448, 3.749808, -9.919294
224, -28.600873, 3.749808, -14.572872
225, -25.969049, 3.749808, -18.867618
226, -22.697781, 3.749808, -22.697781
227, -18.867618, 3.749808, -25.969049
228, -14.572872, 3.749808, -28.600873
229, -9.919294, 3.749808, -30.528448
230, -5.021470, 3.749808, -31.704311
231, -0.000000, 3.749808, -32.099510
232, 5.021470, 3.749808, -31.704311
233, 9.919294, 3.749808, -30.528448
234, 14.572872, 3.749808, -28.600873
235, 18.867618, 3.749808, -25.969049
236, 22.697781, 3.749808, -22.697781
237, 25.969049, 3.749808, -18.867618
238, 28.600873, 3.749808, -14.572872
239, 30.528448, 3.749808, -9.919294
240, 31.704311, 3.749808, -5.021470
241, 30.823407, 4.499786, 0.000000
242, 30.443920, 4.499786, 4.821843
243, 29.314803, 4.499786, 9.524957
244, 27.463857, 4.499786, 13.993534
245, 24.936660, 4.499786, 18.117544
246, 21.795440, 4.499786, 21.795440
247, 18.117544, 4.499786, 24.936660
248, 13.993534, 4.499786, 27.463857
249, 9.524957, 4.499786, 29.314803
250, 4.821843, 4.499786, 30.443920
251, 0.000000, 4.499786, 30.823407
252, -4.821843, 4.499786, 30.443920
253, -9.524957, 4.499786, 29.314803
254, -13.993534, 4.499786, 27.463857
255, -18.117544, 4.499786, 24.936660
256, -21.795440, 4.499786, 21.795440
257, -24.936660, 4.499786, 18.117544
258, -27.463857, 4.499786, 13.993534
259, -29.314803, 4.499786, 9.524957
260, -30.443920, 4.499786, 4.821843
261, -30.823407, 4.499786, 0.000000
262, -30.443920, 4.499786, -4.821843
263, -29.314803, 4.499786, -9.524957
264, -27.463857, 4.499786, -13.993534
265, -24.936660, 4.499786, -18.117544
266, -21.795440, 4.499786, -21.795440
267, -18.117544, 4.499786, -24.936660
268, -13.993534, 4.499786, -27.463857
269, -9.524957, 4.499786, -29.314803
270, -4.821843, 4.499786, -30.443920
271, -0.000000, 4.499786, -30.823407
272, 4.821843, 4.499786, -30.443920
273, 9.524957, 4.499786, -29.314803
274, 13.993534, 4.499786, -27.463857
275, 18.117544, 4.499786, -24.936660
276, 21.795440, 4.499786, -21.795440
277, 24.936660, 4.499786, -18.117544
278, 27.463857, 4.499786, -13.993534
279, 29.314803, 4.499786, -9.524957
280, 30.443920, 4.499786, -4.821843
281, 29.779581, 5.249775, 0.000000
282, 29.412945, 5.249775, 4.658553
283, 28.322064, 5.249775, 9.202397
284, 26.533801, 5.249775, 13.519647
285, 24.092187, 5.249775, 17.503998
286, 21.057344, 5.249775, 21.057344
287, 17.503998, 5.249775, 24.092187
288, 13.519647, 5.249775, 26.533801
289, 9.202397, 5.249775, 28.322064
290, 4.658553, 5.249775, 29.412945
291, 0.000000, 5.249775, 29.779581
292, -4.658553, 5.249775, 29.412945
293, -9.202397, 5.249775, 28.322064
294, -13.519647, 5.249775, 26.533801
295, -17.503998, 5.249775, 24.092187
296, -21.057344, 5.249775, 21.057344
297, -24.092187, 5.249775, 17.503998
298, -26.533801, 5.249775, 13.519647
299, -28.322064, 5.249775, 9.202397
300, -29.412945, 5.249775, 4.658553
301, -29.779581, 5.249775, 0.000000
302, -29.412945, 5.249775, -4.658553
303, -28.322064, 5.249775, -9.202397
304, -26.533801, 5.249775, -13.519647
305, -24.092187, 5.249775, -17.503998
306, -21.057344, 5.249775, -21.057344
307, -17.503998, 5.249775, -24.092187
308, -13.519647, 5.249775, -26.533801
309, -9.202397, 5.249775, -28.322064
310, -4.658553, 5.249775, -29.412945
311, -0.000000, 5.249775, -29.779581
312, 4.658553, 5.249775, -29.412945
313, 9.202397, 5.249775, -28.322064
314, 13.519647, 5.249775, -26.533801
315, 17.503998, 5.249775, -24.092187
316, 21.057344, 5.249775, -21.057344
317, 24.092187, 5.249775, -17.503998
318, 26.533801, 5.249775, -13.519647
319, 28.322064, 5.249775, -9.202397
320, 29.412945, 5.249775, -4.658553
321, 28.735754, 5.999764, 0.000000
322, 28.381970, 5.999764, 4.495262
323, 27.329326, 5.999764, 8.879836
324, 25.603745, 5.999764, 13.045759
325, 23.247714, 5.999764, 16.890453
326, 20.319247, 5.999764, 20.319247
327, 16.890453, 5.999764, 23.247714
328, 13.045759, 5.999764, 25.603745
329, 8.879836, 5.999764, 27.329326
330, 4.495262, 5.999764, 28.381970
331, 0.000000, 5.999764, 28.735754
332, -4.495262, 5.999764, 28.381970
333, -8.879836, 5.999764, 27.329326
334, -13.045759, 5.999764, 25.603745
335, -16.890453, 5.999764, 23.247714
336, -20.319247, 5.999764, 20.319247
337, -23.247714, 5.999764, 16.890453
338, -25.603745, 5.999764, 13.045759
339, -27.329326, 5.999764, 8.879836
340, -28.381970, 5.999764, 4.495262
341, -28.735754, 5.999764, 0.000000
342, -28.381970, 5.999764, -4.495262
343, -27.329326, 5.999764, -8.879836
344, -25.603745, 5.999764, -13.045759
345, -23.247714, 5.999764, -16.890453
346, -20.319247, 5.999764, -20.319247
347, -16.890453, 5.999764, -23.247714
348, -13.045759, 5.999764, -25.603745
349, -8.879836, 5.999764, -27.329326
350, -4.495262, 5.999764, -28.381970
351, -0.000000, 5.999764, -28.735754
352, 4.495262, 5.999764, -28.381970
353, 8.879836, 5.999764, -27.329326
354, 13.045759, 5.999764, -25.603745
355, 16.890453, 5.999764, -23.247714
356, 20.319247, 5.999764, -20.319247
357, 23.247714, 5.999764, -16.890453
358, 25.603745, 5.999764, -13.045759
359, 27.329326, 5.999764, -8.879836
360, 28.381970, 5.999764, -4.495262
361, 27.987355, 7.080005, 0.000000
362, 27.642785, 7.080005, 4.378187
363, 26.617557, 7.080005, 8.648568
364, 24.936916, 7.080005, 12.705993
365, 22.642246, 7.080005, 16.450555
366, 19.790049, 7.080005, 19.790049
367, 16.450555, 7.080005, 22.642246
368, 12.705993, 7.080005, 24.936916
369, 8.648568, 7.080005, 26.617557
370, 4.378187, 7.080005, 27.642785
371, 0.000000, 7.080005, 27.987355
372, -4.378187, 7.080005, 27.642785
373, -8.648568, 7.080005, 26.617557
374, -12.705993, 7.080005, 24.936916
375, -16.450555, 7.080005, 22.642246
376, -19.790049, 7.080005, 19.790049
377, -22.642246, 7.080005, 16.450555
378, -24.936916, 7.080005, 12.705993
379, -26.617557, 7.080005, 8.648568
380, -27.642785, 7.080005, 4.378187
381, -27.987355, 7.080005, 0.000000
382, -27.642785, 7.080005, -4.378187
383, -26.617557, 7.080005, -8.648568
384, -24.936916, 7.080005, -12.705993
385, -22.642246, 7.080005, -16.450555
386, -19.790049, 7.080005, -19.790049
387, -16.450555, 7.080005, -22.642246
388, -12.705993, 7.080005, -24.936916
389, -8.648568, 7.080005, -26.617557
390, -4.378187, 7.080005, -27.642785
391, -0.000000, 7.080005, -27.987355
392, 4.378187, 7.080005, -27.642785
393, 8.648568, 7.080005, -26.617557
394, 12.705993, 7.080005, -24.936916
395, 16.450555, 7.080005, -22.642246
396, 19.790049, 7.080005, -19.790049
397, 22.642246, 7.080005, -16.450555
398, 24.936916, 7.080005, -12.705993
399, 26.617557, 7.080005, -8.648568
400, 27.642785, 7.080005, -4.378187
401, 27.238956, 8.160246, 0.000000
402, 26.903600, 8.160246, 4.261112
403, 25.905787, 8.160246, 8.417300
404, 24.270088, 8.160246, 12.366227
405, 22.036779, 8.160246, 16.010657
406, 19.260851, 8.160246, 19.260851
407, 16.010657, 8.160246, 22.036779
408, 12.366227, 8.160246, 24.270088
409, 8.417300, 8.160246, 25.905787
410, 4.261112, 8.160246, 26.903600
411, 0.000000, 8.160246, 27.238956
412, -4.261112, 8.160246, 26.903600
413, -8.417300, 8.160246, 25.905787
414, -12.366227, 8.160246, 24.270088
415, -16.010657, 8.160246, 22.036779
416, -19.260851, 8.160246, 19.260851
417, -22.036779, 8.160246, 16.010657
418, -24.270088, 8.160246, 12.366227
419, -25.905787, 8.160246, 8.417300
420, -26.903600, 8.160246, 4.261112
421, -27.238956, 8.160246, 0.000000
422, -26.903600, 8.160246, -4.261112
423, -25.905787, 8.160246, -8.417300
424, -24.270088, 8.160246, -12.366227
425, -22.036779, 8.160246, -16.010657
426, -19.260851, 8.160246, -19.260851
427, -16.010657, 8.160246, -22.036779
428, -12.366227, 8.160246, -24.270088
429, -8.417300, 8.160246, -25.905787
430, -4.261112, 8.160246, -26.903600
431, -0.000000, 8.160246, -27.238956
432, 4.261112, 8.160246, -26.903600
433, 8.417300, 8.160246, -25.905787
434, 12.366227, 8.160246, -24.270088
435, 16.010657, 8.160246, -22.036779
436, 19.260851, 8.160246, -19.260851
437, 22.036779, 8.160246, -16.010657
438, 24.270088, 8.160246, -12.366227
439, 25.905787, 8.160246, -8.417300
440, 26.903600, 8.160246, -4.261112
441, 26.841887, 10.104688, 0.000000
442, 26.511419, 10.104688, 4.198996
443, 25.528152, 10.104688, 8.294599
444, 23.916297, 10.104688, 12.185962
445, 21.715543, 10.104688, 15.777265
446, 18.980080, 10.104688, 18.980080
447, 15.777265, 10.104688, 21.715543
448, 12.185962, 10.104688, 23.916297
449, 8.294599, 10.104688, 25.528152
450, 4.198996, 10.104688, 26.511419
451, 0.000000, 10.104688, 26.841887
452, -4.198996, 10.104688, 26.511419
453, -8.294599, 10.104688, 25.528152
454, -12.185962, 10.104688, 23.916297
455, -15.777265, 10.104688, 21.715543
456, -18.980080, 10.104688, 18.980080
457, -21.715543, 10.104688, 15.777265
458, -23.916297, 10.104688, 12.185962
459, -25.528152, 10.104688, 8.294599
460, -26.511419, 10.104688, 4.198996
461, -26.841887, 10.104688, 0.000000
462, -26.511419, 10.104688, -4.198996
463, -25.528152, 10.104688, -8.294599
464, -23.916297, 10.104688, -12.185962
465, -21.715543, 10.104688, -15.777265
466, -18.980080, 10.104688, -18.980080
467, -15.777265, 10.104688, -21.715543
468, -12.185962, 10.104688, -23.916297
469, -8.294599, 10.104688, -25.528152
470, -4.198996, 10.104688, -26.511419
471, -0.000000, 10.104688, -26.841887
472, 4.198996, 10.104688, -26.511419
473, 8.294599, 10.104688, -25.528152
474, 12.185962, 10.104688, -23.916297
475, 15.777265, 10.104688, -21.715543
476, 18.980080, 10.104688, -18.980080
477, 21.715543, 10.104688, -15.777265
478, 23.916297, 10.104688, -12.185962
479, 25.528152, 10.104688, -8.294599
480, 26.511419, 10.104688, -4.198996
481, 26.444818, 12.049131, 0.000000
482, 26.119238, 12.049131, 4.136881
483, 25.150517, 12.049131, 8.171898
484, 23.562505, 12.049131, 12.005696
485, 21.394307, 12.049131, 15.543874
486, 18.699310, 12.049131, 18.699310
487, 15.543874, 12.049131, 21.394307
488, 12.005696, 12.049131, 23.562505
489, 8.171898, 12.049131, 25.150517
490, 4.136881, 12.049131, 26.119238
491, 0.000000, 12.049131, 26.444818
492, -4.136881, 12.049131, 26.119238
493, -8.171898, 12.049131, 25.150517
494, -12.005696, 12.049131, 23.562505
495, -15.543874, 12.049131, 21.394307
496, -18.699310, 12.049131, 18.699310
497, -21.394307, 12.049131, 15.543874
498, -23.562505, 12.049131, 12.005696
499, -25.150517, 12.049131, 8.171898
500, -26.119238, 12.049131, 4.136881
501, -26.444818, 12.049131, 0.000000
502, -26.119238, 12.049131, -4.136881
503, -25.150517, 12.049131, -8.171898
504, -23.562505, 12.049131, -12.005696
505, -21.394307, 12.049131, -15.543874
506, -18.699310, 12.049131, -18.699310
507, -15.543874, 12.049131, -21.394307
508, -12.005696, 12.049131, -23.562505
509, -8.171898, 12.049131, -25.150517
510, -4.136881, 12.049131, -26.119238
511, -0.000000, 12.049131, -26.444818
512, 4.136881, 12.049131, -26.119238
513, 8.171898, 12.049131, -25.150517
514, 12.005696, 12.049131, -23.562505
515, 15.543874, 12.049131, -21.394307
516, 18.699310, 12.049131, -18.699310
517, 21.394307, 12.049131, -15.543874
518, 23.562505, 12.049131, -12.005696
519, 25.150517, 12.049131, -8.171898
520, 26.119238, 12.049131, -4.136881
521, 26.443494, 15.549132, 0.000000
522, 26.117930, 15.549132, 4.136674
523, 25.149257, 15.549132, 8.171489
524, 23.561325, 15.549132, 12.005095
525, 21.393236, 15.549132, 15.543096
526, 18.698374, 15.549132, 18.698374
527, 15.543096, 15.549132, 21.393236
528, 12.005095, 15.549132, 23.561325
529, 8.171489, 15.549132, 25.149257
530, 4.136674, 15.549132, 26.117930
531, 0.000000, 15.549132, 26.443494
532, -4.136674, 15.549132, 26.117930
533, -8.171489, 15.549132, 25.149257
534, -12.005095, 15.549132, 23.561325
535, -15.543096, 15.549132, 21.393236
536, -18.698374, 15.549132, 18.698374
537, -21.393236, 15.549132, 15.543096
538, -23.561325, 15.549132, 12.005095
539, -25.149257, 15.549132, 8.171489
540, -26.117930, 15.549132, 4.136674
541, -26.443494, 15.549132, 0.000000
542, -26.117930, 15.549132, -4.136674
543, -25.149257, 15.549132, -8.171489
544, -23.561325, 15.549132, -12.005095
545, -21.393236, 15.549132, -15.543096
546, -18.698374, 15.549132, -18.698374
547, -15.543096, 15.549132, -21.393236
548, -12.005095, 15.549132, -23.561325
549, -8.171489, 15.549132, -25.149257
550, -4.136674, 15.549132, -26.117930
551, -0.000000, 15.549132, -26.443494
552, 4.136674, 15.549132, -26.117930
553, 8.171489, 15.549132, -25.149257
554, 12.005095, 15.549132, -23.561325
555, 15.543096, 15.549132, -21.393236
556, 18.698374, 15.549132, -18.698374
557, 21.393236, 15.549132, -15.543096
558, 23.561325, 15.549132, -12.005095
559, 25.149257, 15.549132, -8.171489
560, 26.117930, 15.549132, -4.136674
561, 26.442169, 19.049133, 0.000000
562, 26.116622, 19.049133, 4.136467
563, 25.147997, 19.049133, 8.171080
564, 23.560145, 19.049133, 12.004494
565, 21.392164, 19.049133, 15.542317
566, 18.697437, 19.049133, 18.697437
567, 15.542317, 19.049133, 21.392164
568, 12.004494, 19.049133, 23.560145
569, 8.171080, 19.049133, 25.147997
570, 4.136467, 19.049133, 26.116622
571, 0.000000, 19.049133, 26.442169
572, -4.136467, 19.049133, 26.116622
573, -8.171080, 19.049133, 25.147997
574, -12.004494, 19.049133, 23.560145
575, -15.542317, 19.049133, 21.392164
576, -18.697437, 19.049133, 18.697437
577, -21.392164, 19.049133, 15.542317
578, -23.560145, 19.049133, 12.004494
579, -25.147997, 19.049133, 8.171080
580, -26.116622, 19.049133, 4.136467
581, -26.442169, 19.049133, 0.000000
582, -26.116622, 19.049133, -4.136467
583, -25.147997, 19.049133, -8.171080
584, -23.560145, 19.049133, -12.004494
585, -21.392164, 19.049133, -15.542317
586, -18.697437, 19.049133, -18.697437
587, -15.542317, 19.049133, -21.392164
588, -12.004494, 19.049133, -23.560145
589, -8.171080, 19.049133, -25.147997
590, -4.136467, 19.049133, -26.116622
591, -0.000000, 19.049133, -26.442169
592, 4.136467, 19.049133, -26.116622
593, 8.171080, 19.049133, -25.147997
594, 12.004494, 19.049133, -23.560145
595, 15.542317, 19.049133, -21.392164
596, 18.697437, 19.049133, -18.697437
597, 21.392164, 19.049133, -15.542317
598, 23.560145, 19.049133, -12.004494
599, 25.147997, 19.049133, -8.171080
600, 26.116622, 19.049133, -4.136467
601, 26.528740, 22.549135, 0.000000
602, 26.202128, 22.549135, 4.150009
603, 25.230331, 22.549135, 8.197832
604, 23.637281, 22.549135, 12.043796
605, 21.462202, 22.549135, 15.593202
606, 18.758652, 22.549135, 18.758652
607, 15.593202, 22.549135, 21.462202
608, 12.043796, 22.549135, 23.637281
609, 8.197832, 22.549135, 25.230331
610, 4.150009, 22.549135, 26.202128
611, 0.000000, 22.549135, 26.528740
612, -4.150009, 22.549135, 26.202128
613, -8.197832, 22.549135, 25.230331
614, -12.043796, 22.549135, 23.637281
615, -15.593202, 22.549135, 21.462202
616, -18.758652, 22.549135, 18.758652
617, -21.462202, 22.549135, 15.593202
618, -23.637281, 22.549135, 12.043796
619, -25.230331, 22.549135, 8.197832
620, -26.202128, 22.549135, 4.150009
621, -26.528740, 22.549135, 0.000000
622, -26.202128, 22.549135, -4.150009
623, -25.230331, 22.549135, -8.197832
624, -23.637281, 22.549135, -12.043796
625, -21.462202, 22.549135, -15.593202
626, -18.758652, 22.549135, -18.758652
627, -15.593202, 22.549135, -21.462202
628, -12.043796, 22.549135, -23.637281
629, -8.197832, 22.549135, -25.230331
630, -4.150009, 22.549135, -26.202128
631, -0.000000, 22.549135, -26.528740
632, 4.150009, 22.549135, -26.202128
633, 8.197832, 22.549135, -25.230331
634, 12.043796, 22.549135, -23.637281
635, 15.593202, 22.549135, -21.462202
636, 18.758652, 22.549135, -18.758652
637, 21.462202, 22.549135, -15.593202
638, 23.637281, 22.549135, -12.043796
639, 25.230331, 22.549135, -8.197832
640, 26.202128, 22.549135, -4.150009
641, 26.615312, 26.049136, 0.000000
642, 26.287633, 26.049136, 4.163552
643, 25.312665, 26.049136, 8.224584
644, 23.714416, 26.049136, 12.083099
645, 21.532239, 26.049136, 15.644088
646, 18.819867, 26.049136, 18.819867
647, 15.644088, 26.049136, 21.532239
648, 12.083099, 26.049136, 23.714416
649, 8.224584, 26.049136, 25.312665
650, 4.163552, 26.049136, 26.287633
651, 0.000000, 26.049136, 26.615312
652, -4.163552, 26.049136, 26.287633
653, -8.224584, 26.049136, 25.312665
654, -12.083099, 26.049136, 23.714416
655, -15.644088, 26.049136, 21.532239
656, -18.819867, 26.049136, 18.819867
657, -21.532239, 26.049136, 15.644088
658, -23.714416, 26.049136, 12.083099
659, -25.312665, 26.049136, 8.224584
660, -26.287633, 26.049136, 4.163552
661, -26.615312, 26.049136, 0.000000
662, -26.287633, 26.049136, -4.163552
663, -25.312665, 26.049136, -8.224584
664, -23.714416, 26.049136, -12.083099
665, -21.532239, 26.049136, -15.644088
666, -18.819867, 26.049136, -18.819867
667, -15.644088, 26.049136, -21.532239
668, -12.083099, 26.049136, -23.714416
669, -8.224584, 26.049136, -25.312665
670, -4.163552, 26.049136, -26.287633
671, -0.000000, 26.049136, -26.615312
672, 4.163552, 26.049136, -26.287633
673, 8.224584, 26.049136, -25.312665
674, 12.083099, 26.049136, -23.714416
675, 15.644088, 26.049136, -21.532239
676, 18.819867, 26.049136, -18.819867
677, 21.532239, 26.049136, -15.644088
678, 23.714416, 26.049136, -12.083099
679, 25.312665, 26.049136, -8.224584
680, 26.287633, 26.049136, -4.163552
681, 26.785431, 29.376854, 0.000000
682, 26.455658, 29.376854, 4.190165
683, 25.474459, 29.376854, 8.277153
684, 23.865994, 29.376854, 12.160331
685, 21.669869, 29.376854, 15.744081
686, 18.940160, 29.376854, 18.940160
687, 15.744081, 29.376854, 21.669869
688, 12.160331, 29.376854, 23.865994
689, 8.277153, 29.376854, 25.474459
690, 4.190165, 29.376854, 26.455658
691, 0.000000, 29.376854, 26.785431
692, -4.190165, 29.376854, 26.455658
693, -8.277153, 29.376854, 25.474459
694, -12.160331, 29.376854, 23.865994
695, -15.744081, 29.376854, 21.669869
696, -18.940160, 29.376854, 18.940160
697, -21.669869, 29.376854, 15.744081
698, -23.865994, 29.376854, 12.160331
699, -25.474459, 29.376854, 8.277153
700, -26.455658, 29.376854, 4.190165
701, -26.785431, 29.376854, 0.000000
702, -26.455658, 29.376854, -4.190165
703, -25.474459, 29.376854, -8.277153
704, -23.865994, 29.376854, -12.160331
705, -21.669869, 29.376854, -15.744081
706, -18.940160, 29.376854, -18.940160
707, -15.744081, 29.376854, -21.669869
708, -12.160331, 29.376854, -23.865994
709, -8.277153, 29.376854, -25.474459
710, -4.190165, 29.376854, -26.455658
711, -0.000000, 29.376854, -26.785431
712, 4.190165, 29.376854, -26.455658
713, 8.277153, 29.376854, -25.474459
714, 12.160331, 29.376854, -23.865994
715, 15.744081, 29.376854, -21.669869
716, 18.940160, 29.376854, -18.940160
717, 21.669869, 29.376854, -15.744081
718, 23.865994, 29.376854, -12.160331
719, 25.474459, 29.376854, -8.277153
720, 26.455658, 29.376854, -4.190165
721, 26.955551, 32.704572, 0.000000
722, 26.623683, 32.704572, 4.216777
723, 25.636252, 32.704572, 8.329723
724, 24.017571, 32.704572, 12.237564
725, 21.807499, 32.704572, 15.844075
726, 19.060453, 32.704572, 19.060453
727, 15.844075, 32.704572, 21.807499
728, 12.237564, 32.704572, 24.017571
729, 8.329723, 32.704572, 25.636252
730, 4.216777, 32.704572, 26.623683
731, 0.000000, 32.704572, 26.955551
732, -4.216777, 32.704572, 26.623683
733, -8.329723, 32.704572, 25.636252
734, -12.237564, 32.704572, 24.017571
735, -15.844075, 32.704572, 21.807499
736, -19.060453, 32.704572, 19.060453
737, -21.807499, 32.704572, 15.844075
738, -24.017571, 32.704572, 12.237564
739, -25.636252, 32.704572, 8.329723
740, -26.623683, 32.704572, 4.216777
741, -26.955551, 32.704572, 0.000000
742, -26.623683, 32.704572, -4.216777
743, -25.636252, 32.704572, -8.329723
744, -24.017571, 32.704572, -12.237564
745, -21.807499, 32.704572, -15.844075
746, -19.060453, 32.704572, -19.060453
747, -15.844075, 32.704572, -21.807499
748, -12.237564, 32.704572, -24.017571
749, -8.329723, 32.704572, -25.636252
750, -4.216777, 32.704572, -26.623683
751, -0.000000, 32.704572, -26.955551
752, 4.216777, 32.704572, -26.623683
753, 8.329723, 32.704572, -25.636252
754, 12.237564, 32.704572, -24.017571
755, 15.844075, 32.704572, -21.807499
756, 19.060453, 32.704572, -19.060453
757, 21.807499, 32.704572, -15.844075
758, 24.017571, 32.704572, -12.237564
759, 25.636252, 32.704572, -8.329723
760, 26.623683, 32.704572, -4.216777
761, 27.177775, 34.553303, 0.000000
762, 26.843172, 34.553303, 4.251541
763, 25.847600, 34.553303, 8.398394
764, 24.215575, 34.553303, 12.338452
765, 21.987282, 34.553303, 15.974696
766, 19.217589, 34.553303, 19.217589
767, 15.974696, 34.553303, 21.987282
768, 12.338452, 34.553303, 24.215575
769, 8.398394, 34.553303, 25.847600
770, 4.251541, 34.553303, 26.843172
771, 0.000000, 34.553303, 27.177775
772, -4.251541, 34.553303, 26.843172
773, -8.398394, 34.553303, 25.847600
774, -12.338452, 34.553303, 24.215575
775, -15.974696, 34.553303, 21.987282
776, -19.217589, 34.553303, 19.217589
777, -21.987282, 34.553303, 15.974696
778, -24.215575, 34.553303, 12.338452
779, -25.847600, 34.553303, 8.398394
780, -26.843172, 34.553303, 4.251541
781, -27.177775, 34.553303, 0.000000
782, -26.843172, 34.553303, -4.251541
783, -25.847600, 34.553303, -8.398394
784, -24.215575, 34.553303, -12.338452
785, -21.987282, 34.553303, -15.974696
786, -19.217589, 34.553303, -19.217589
787, -15.974696, 34.553303, -21.987282
788, -12.338452, 34.553303, -24.215575
789, -8.398394, 34.553303, -25.847600
790, -4.251541, 34.553303, -26.843172
791, -0.000000, 34.553303, -27.177775
792, 4.251541, 34.553303, -26.843172
793, 8.398394, 34.553303, -25.847600
794, 12.338452, 34.553303, -24.215575
795, 15.974696, 34.553303, -21.987282
796, 19.217589, 34.553303, -19.217589
797, 21.987282, 34.553303, -15.974696
798, 24.215575, 34.553303, -12.338452
799, 25.847600, 34.553303, -8.398394
800, 26.843172, 34.553303, -4.251541
801, 27.400000, 36.402034, 0.000000
802, 27.062661, 36.402034, 4.286304
803, 26.058949, 36.402034, 8.467066
804, 24.413579, 36.402034, 12.439340
805, 22.167066, 36.402034, 16.105316
806, 19.374726, 36.402034, 19.374726
807, 16.105316, 36.402034, 22.167066
808, 12.439340, 36.402034, 24.413579
809, 8.467066, 36.402034, 26.058949
810, 4.286304, 36.402034, 27.062661
811, 0.000000, 36.402034, 27.400000
812, -4.286304, 36.402034, 27.062661
813, -8.467066, 36.402034, 26.058949
814, -12.439340, 36.402034, 24.413579
815, -16.105316, 36.402034, 22.167066
816, -19.374726, 36.402034, 19.374726
817, -22.167066, 36.402034, 16.105316
818, -24.413579, 36.402034, 12.439340
819, -26.058949, 36.402034, 8.467066
820, -27.062661, 36.402034, 4.286304
821, -27.400000, 36.402034, 0.000000
822, -27.062661, 36.402034, -4.286304
823, -26.058949, 36.402034, -8.467066
824, -24.413579, 36.402034, -12.439340
825, -22.167066, 36.402034, -16.105316
826, -19.374726, 36.402034, -19.374726
827, -16.105316, 36.402034, -22.167066
828, -12.439340, 36.402034, -24.413579
829, -8.467066, 36.402034, -26.058949
830, -4.286304, 36.402034, -27.062661
831, -0.000000, 36.402034, -27.400000
832, 4.286304, 36.402034, -27.062661
833, 8.467066, 36.402034, -26.058949
834, 12.439340, 36.402034, -24.413579
835, 16.105316, 36.402034, -22.167066
836, 19.374726, 36.402034, -19.374726
837, 22.167066, 36.402034, -16.105316
838, 24.413579, 36.402034, -12.439340
839, 26.058949, 36.402034, -8.467066
840, 27.062661, 36.402034, -4.286304
*ELEMENT, TYPE=S4R, ELSET=EALL
1, 1, 2, 42, 41
2, 2, 3, 43, 42
3, 3, 4, 44, 43
4, 4, 5, 45, 44
5, 5, 6, 46, 45
6, 6, 7, 47, 46
7, 7, 8, 48, 47
8, 8, 9, 49, 48
9, 9, 10, 50, 49
10, 10, 11, 51, 50
11, 11, 12, 52, 51
12, 12, 13, 53, 52
13, 13, 14, 54, 53
14, 14, 15, 55, 54
15, 15, 16, 56, 55
16, 16, 17, 57, 56
17, 17, 18, 58, 57
18, 18, 19, 59, 58
19, 19, 20, 60, 59
20, 20, 21, 61, 60
21, 21, 22, 62, 61
22, 22, 23, 63, 62
23, 23, 24, 64, 63
24, 24, 25, 65, 64
25, 25, 26, 66, 65
26, 26, 27, 67, 66
27, 27, 28, 68, 67
28, 28, 29, 69, 68
29, 29, 30, 70, 69
30, 30, 31, 71, 70
31, 31, 32, 72, 71
32, 32, 33, 73, 72
33, 33, 34, 74, 73
34, 34, 35, 75, 74
35, 35, 36, 76, 75
36, 36, 37, 77, 76
37, 37, 38, 78, 77
38, 38, 39, 79, 78
39, 39, 40, 80, 79
40, 40, 1, 41, 80
41, 41, 42, 82, 81
42, 42, 43, 83, 82
43, 43, 44, 84, 83
44, 44, 45, 85, 84
45, 45, 46, 86, 85
46, 46, 47, 87, 86
47, 47, 48, 88, 87
48, 48, 49, 89, 88
49, 49, 50, 90, 89
50, 50, 51, 91, 90
51, 51, 52, 92, 91
52, 52, 53, 93, 92
53, 53, 54, 94, 93
54, 54, 55, 95, 94
55, 55, 56, 96, 95
56, 56, 57, 97, 96
57, 57, 58, 98, 97
58, 58, 59, 99, 98
59, 59, 60, 100, 99
60, 60, 61, 101, 100
61, 61, 62, 102, 101
62, 62, 63, 103, 102
63, 63, 64, 104, 103
64, 64, 65, 105, 104
65, 65, 66, 106, 105
66, 66, 67, 107, 106
67, 67, 68, 108, 107
68, 68, 69, 109, 108
69, 69, 70, 110, 109
70, 70, 71, 111, 110
71, 71, 72, 112, 111
72, 72, 73, 113, 112
73, 73, 74, 114, 113
74, 74, 75, 115, 114
75, 75, 76, 116, 115
76, 76, 77, 117, 116
77, 77, 78, 118, 117
78, 78, 79, 119, 118
79, 79, 80, 120, 119
80, 80, 41, 81, 120
81, 81, 82, 122, 121
82, 82, 83, 123, 122
83, 83, 84, 124, 123
84, 84, 85, 125, 124
85, 85, 86, 126, 125
86, 86, 87, 127, 126
87, 87, 88, 128, 127
88, 88, 89, 129, 128
89, 89, 90, 130, 129
90, 90, 91, 131, 130
91, 91, 92, 132, 131
92, 92, 93, 133, 132
93, 93, 94, 134, 133
94, 94, 95, 135, 134
95, 95, 96, 136, 135
96, 96, 97, 137, 136
97, 97, 98, 138, 137
98, 98, 99, 139, 138
99, 99, 100, 140, 139
100, 100, 101, 141, 140
101, 101, 102, 142, 141
102, 102, 103, 143, 142
103, 103, 104, 144, 143
104, 104, 105, 145, 144
105, 105, 106, 146, 145
106, 106, 107, 147, 146
107, 107, 108, 148, 147
108, 108, 109, 149, 148
109, 109, 110, 150, 149
110, 110, 111, 151, 150
111, 111, 112, 152, 151
112, 112, 113, 153, 152
113, 113, 114, 154, 153
114, 114, 115, 155, 154
115, 115, 116, 156, 155
116, 116, 117, 157, 156
117, 117, 118, 158, 157
118, 118, 119, 159, 158
119, 119, 120, 160, 159
120, 120, 81, 121, 160
121, 121, 122, 162, 161
122, 122, 123, 163, 162
123, 123, 124, 164, 163
124, 124, 125, 165, 164
125, 125, 126, 166, 165
126, 126, 127, 167, 166
127, 127, 128, 168, 167
128, 128, 129, 169, 168
129, 129, 130, 170, 169
130, 130, 131, 171, 170
131, 131, 132, 172, 171
132, 132, 133, 173, 172
133, 133, 134, 174, 173
134, 134, 135, 175, 174
135, 135, 136, 176, 175
136, 136, 137, 177, 176
137, 137, 138, 178, 177
138, 138, 139, 179, 178
139, 139, 140, 180, 179
140, 140, 141, 181, 180
141, 141, 142, 182, 181
142, 142, 143, 183, 182
143, 143, 144, 184, 183
144, 144, 145, 185, 184
145, 145, 146, 186, 185
146, 146, 147, 187, 186
147, 147, 148, 188, 187
148, 148, 149, 189, 188
149, 149, 150, 190, 189
150, 150, 151, 191, 190
151, 151, 152, 192, 191
152, 152, 153, 193, 192
153, 153, 154, 194, 193
154, 154, 155, 195, 194
155, 155, 156, 196, 195
156, 156, 157, 197, 196
157, 157, 158, 198, 197
158, 158, 159, 199, 198
159, 159, 160, 200, 199
160, 160, 121, 161, 200
161, 161, 162, 202, 201
162, 162, 163, 203, 202
163, 163, 164, 204, 203
164, 164, 165, 205, 204
165, 165, 166, 206, 205
166, 166, 167, 207, 206
167, 167, 168, 208, 207
168, 168, 169, 209, 208
169, 169, 170, 210, 209
170, 170, 171, 211, 210
171, 171, 172, 212, 211
172, 172, 173, 213, 212
173, 173, 174, 214, 213
174, 174, 175, 215, 214
175, 175, 176, 216, 215
176, 176, 177, 217, 216
177, 177, 178, 218, 217
178, 178, 179, 219, 218
179, 179, 180, 220, 219
180, 180, 181, 221, 220
181, 181, 182, 222, 221
182, 182, 183, 223, 222
183, 183, 184, 224, 223
184, 184, 185, 225, 224
185, 185, 186, 226, 225
186, 186, 187, 227, 226
187, 187, 188, 228, 227
188, 188, 189, 229, 228
189, 189, 190, 230, 229
190, 190, 191, 231, 230
191, 191, 192, 232, 231
192, 192, 193, 233, 232
193, 193, 194, 234, 233
194, 194, 195, 235, 234
195, 195, 196, 236, 235
196, 196, 197, 237, 236
197, 197, 198, 238, 237
198, 198, 199, 239, 238
199, 199, 200, 240, 239
200, 200, 161, 201, 240
201, 201, 202, 242, 241
202, 202, 203, 243, 242
203, 203, 204, 244, 243
204, 204, 205, 245, 244
205, 205, 206, 246, 245
206, 206, 207, 247, 246
207, 207, 208, 248, 247
208, 208, 209, 249, 248
209, 209, 210, 250, 249
210, 210, 211, 251, 250
211, 211, 212, 252, 251
212, 212, 213, 253, 252
213, 213, 214, 254, 253
214, 214, 215, 255, 254
215, 215, 216, 256, 255
216, 216, 217, 257, 256
217, 217, 218, 258, 257
218, 218, 219, 259, 258
219, 219, 220, 260, 259
220, 220, 221, 261, 260
221, 221, 222, 262, 261
222, 222, 223, 263, 262
223, 223, 224, 264, 263
224, 224, 225, 265, 264
225, 225, 226, 266, 265
226, 226, 227, 267, 266
227, 227, 228, 268, 267
228, 228, 229, 269, 268
229, 229, 230, 270, 269
230, 230, 231, 271, 270
231, 231, 232, 272, 271
232, 232, 233, 273, 272
233, 233, 234, 274, 273
234, 234, 235, 275, 274
235, 235, 236, 276, 275
236, 236, 237, 277, 276
237, 237, 238, 278, 277
238, 238, 239, 279, 278
239, 239, 240, 280, 279
240, 240, 201, 241, 280
241, 241, 242, 282, 281
242, 242, 243, 283, 282
243, 243, 244, 284, 283
244, 244, 245, 285, 284
245, 245, 246, 286, 285
246, 246, 247, 287, 286
247, 247, 248, 288, 287
248, 248, 249, 289, 288
249, 249, 250, 290, 289
250, 250, 251, 291, 290
251, 251, 252, 292, 291
252, 252, 253, 293, 292
253, 253, 254, 294, 293
254, 254, 255, 295, 294
255, 255, 256, 296, 295
256, 256, 257, 297, 296
257, 257, 258, 298, 297
258, 258, 259, 299, 298
259, 259, 260, 300, 299
260, 260, 261, 301, 300
261, 261, 262, 302, 301
262, 262, 263, 303, 302
263, 263, 264, 304, 303
264, 264, 265, 305, 304
265, 265, 266, 306, 305
266, 266, 267, 307, 306
267, 267, 268, 308, 307
268, 268, 269, 309, 308
269, 269, 270, 310, 309
270, 270, 271, 311, 310
271, 271, 272, 312, 311
272, 272, 273, 313, 312
273, 273, 274, 314, 313
274, 274, 275, 315, 314
275, 275, 276, 316, 315
276, 276, 277, 317, 316
277, 277, 278, 318, 317
278, 278, 279, 319, 318
279, 279, 280, 320, 319
280, 280, 241, 281, 320
281, 281, 282, 322, 321
282, 282, 283, 323, 322
283, 283, 284, 324, 323
284, 284, 285, 325, 324
285, 285, 286, 326, 325
286, 286, 287, 327, 326
287, 287, 288, 328, 327
288, 288, 289, 329, 328
289, 289, 290, 330, 329
290, 290, 291, 331, 330
291, 291, 292, 332, 331
292, 292, 293, 333, 332
293, 293, 294, 334, 333
294, 294, 295, 335, 334
295, 295, 296, 336, 335
296, 296, 297, 337, 336
297, 297, 298, 338, 337
298, 298, 299, 339, 338
299, 299, 300, 340, 339
300, 300, 301, 341, 340
301, 301, 302, 342, 341
302, 302, 303, 343, 342
303, 303, 304, 344, 343
304, 304, 305, 345, 344
305, 305, 306, 346, 345
306, 306, 307, 347, 346
307, 307, 308, 348, 347
308, 308, 309, 349, 348
309, 309, 310, 350, 349
310, 310, 311, 351, 350
311, 311, 312, 352, 351
312, 312, 313, 353, 352
313, 313, 314, 354, 353
314, 314, 315, 355, 354
315, 315, 316, 356, 355
316, 316, 317, 357, 356
317, 317, 318, 358, 357
318, 318, 319, 359, 358
319, 319, 320, 360, 359
320, 320, 281, 321, 360
321, 321, 322, 362, 361
322, 322, 323, 363, 362
323, 323, 324, 364, 363
324, 324, 325, 365, 364
325, 325, 326, 366, 365
326, 326, 327, 367, 366
327, 327, 328, 368, 367
328, 328, 329, 369, 368
329, 329, 330, 370, 369
330, 330, 331, 371, 370
331, 331, 332, 372, 371
332, 332, 333, 373, 372
333, 333, 334, 374, 373
334, 334, 335, 375, 374
335, 335, 336, 376, 375
336, 336, 337, 377, 376
337, 337, 338, 378, 377
338, 338, 339, 379, 378
339, 339, 340, 380, 379
340, 340, 341, 381, 380
341, 341, 342, 382, 381
342, 342, 343, 383, 382
343, 343, 344, 384, 383
344, 344, 345, 385, 384
345, 345, 346, 386, 385
346, 346, 347, 387, 386
347, 347, 348, 388, 387
348, 348, 349, 389, 388
349, 349, 350, 390, 389
350, 350, 351, 391, 390
351, 351, 352, 392, 391
352, 352, 353, 393, 392
353, 353, 354, 394, 393
354, 354, 355, 395, 394
355, 355, 356, 396, 395
356, 356, 357, 397, 396
357, 357, 358, 398, 397
358, 358, 359, 399, 398
359, 359, 360, 400, 399
360, 360, 321, 361, 400
361, 361, 362, 402, 401
362, 362, 363, 403, 402
363, 363, 364, 404, 403
364, 364, 365, 405, 404
365, 365, 366, 406, 405
366, 366, 367, 407, 406
367, 367, 368, 408, 407
368, 368, 369, 409, 408
369, 369, 370, 410, 409
370, 370, 371, 411, 410
371, 371, 372, 412, 411
372, 372, 373, 413, 412
373, 373, 374, 414, 413
374, 374, 375, 415, 414
375, 375, 376, 416, 415
376, 376, 377, 417, 416
377, 377, 378, 418, 417
378, 378, 379, 419, 418
379, 379, 380, 420, 419
380, 380, 381, 421, 420
381, 381, 382, 422, 421
382, 382, 383, 423, 422
383, 383, 384, 424, 423
384, 384, 385, 425, 424
385, 385, 386, 426, 425
386, 386, 387, 427, 426
387, 387, 388, 428, 427
388, 388, 389, 429, 428
389, 389, 390, 430, 429
390, 390, 391, 431, 430
391, 391, 392, 432, 431
392, 392, 393, 433, 432
393, 393, 394, 434, 433
394, 394, 395, 435, 434
395, 395, 396, 436, 435
396, 396, 397, 437, 436
397, 397, 398, 438, 437
398, 398, 399, 439, 438
399, 399, 400, 440, 439
400, 400, 361, 401, 440
401, 401, 402, 442, 441
402, 402, 403, 443, 442
403, 403, 404, 444, 443
404, 404, 405, 445, 444
405, 405, 406, 446, 445
406, 406, 407, 447, 446
407, 407, 408, 448, 447
408, 408, 409, 449, 448
409, 409, 410, 450, 449
410, 410, 411, 451, 450
411, 411, 412, 452, 451
412, 412, 413, 453, 452
413, 413, 414, 454, 453
414, 414, 415, 455, 454
415, 415, 416, 456, 455
416, 416, 417, 457, 456
417, 417, 418, 458, 457
418, 418, 419, 459, 458
419, 419, 420, 460, 459
420, 420, 421, 461, 460
421, 421, 422, 462, 461
422, 422, 423, 463, 462
423, 423, 424, 464, 463
424, 424, 425, 465, 464
425, 425, 426, 466, 465
426, 426, 427, 467, 466
427, 427, 428, 468, 467
428, 428, 429, 469, 468
429, 429, 430, 470, 469
430, 430, 431, 471, 470
431, 431, 432, 472, 471
432, 432, 433, 473, 472
433, 433, 434, 474, 473
434, 434, 435, 475, 474
435, 435, 436, 476, 475
436, 436, 437, 477, 476
437, 437, 438, 478, 477
438, 438, 439, 479, 478
439, 439, 440, 480, 479
440, 440, 401, 441, 480
441, 441, 442, 482, 481
442, 442, 443, 483, 482
443, 443, 444, 484, 483
444, 444, 445, 485, 484
445, 445, 446, 486, 485
446, 446, 447, 487, 486
447, 447, 448, 488, 487
448, 448, 449, 489, 488
449, 449, 450, 490, 489
450, 450, 451, 491, 490
451, 451, 452, 492, 491
452, 452, 453, 493, 492
453, 453, 454, 494, 493
454, 454, 455, 495, 494
455, 455, 456, 496, 495
456, 456, 457, 497, 496
457, 457, 458, 498, 497
458, 458, 459, 499, 498
459, 459, 460, 500, 499
460, 460, 461, 501, 500
461, 461, 462, 502, 501
462, 462, 463, 503, 502
463, 463, 464, 504, 503
464, 464, 465, 505, 504
465, 465, 466, 506, 505
466, 466, 467, 507, 506
467, 467, 468, 508, 507
468, 468, 469, 509, 508
469, 469, 470, 510, 509
470, 470, 471, 511, 510
471, 471, 472, 512, 511
472, 472, 473, 513, 512
473, 473, 474, 514, 513
474, 474, 475, 515, 514
475, 475, 476, 516, 515
476, 476, 477, 517, 516
477, 477, 478, 518, 517
478, 478, 479, 519, 518
479, 479, 480, 520, 519
480, 480, 441, 481, 520
481, 481, 482, 522, 521
482, 482, 483, 523, 522
483, 483, 484, 524, 523
484, 484, 485, 525, 524
485, 485, 486, 526, 525
486, 486, 487, 527, 526
487, 487, 488, 528, 527
488, 488, 489, 529, 528
489, 489, 490, 530, 529
490, 490, 491, 531, 530
491, 491, 492, 532, 531
492, 492, 493, 533, 532
493, 493, 494, 534, 533
494, 494, 495, 535, 534
495, 495, 496, 536, 535
496, 496, 497, 537, 536
497, 497, 498, 538, 537
498, 498, 499, 539, 538
499, 499, 500, 540, 539
500, 500, 501, 541, 540
501, 501, 502, 542, 541
502, 502, 503, 543, 542
503, 503, 504, 544, 543
504, 504, 505, 545, 544
505, 505, 506, 546, 545
506, 506, 507, 547, 546
507, 507, 508, 548, 547
508, 508, 509, 549, 548
509, 509, 510, 550, 549
510, 510, 511, 551, 550
511, 511, 512, 552, 551
512, 512, 513, 553, 552
513, 513, 514, 554, 553
514, 514, 515, 555, 554
515, 515, 516, 556, 555
516, 516, 517, 557, 556
517, 517, 518, 558, 557
518, 518, 519, 559, 558
519, 519, 520, 560, 559
520, 520, 481, 521, 560
521, 521, 522, 562, 561
522, 522, 523, 563, 562
523, 523, 524, 564, 563
524, 524, 525, 565, 564
525, 525, 526, 566, 565
526, 526, 527, 567, 566
527, 527, 528, 568, 567
528, 528, 529, 569, 568
529, 529, 530, 570, 569
530, 530, 531, 571, 570
531, 531, 532, 572, 571
532, 532, 533, 573, 572
533, 533, 534, 574, 573
534, 534, 535, 575, 574
535, 535, 536, 576, 575
536, 536, 537, 577, 576
537, 537, 538, 578, 577
538, 538, 539, 579, 578
539, 539, 540, 580, 579
540, 540, 541, 581, 580
541, 541, 542, 582, 581
542, 542, 543, 583, 582
543, 543, 544, 584, 583
544, 544, 545, 585, 584
545, 545, 546, 586, 585
546, 546, 547, 587, 586
547, 547, 548, 588, 587
548, 548, 549, 589, 588
549, 549, 550, 590, 589
550, 550, 551, 591, 590
551, 551, 552, 592, 591
552, 552, 553, 593, 592
553, 553, 554, 594, 593
554, 554, 555, 595, 594
555, 555, 556, 596, 595
556, 556, 557, 597, 596
557, 557, 558, 598, 597
558, 558, 559, 599, 598
559, 559, 560, 600, 599
560, 560, 521, 561, 600
561, 561, 562, 602, 601
562, 562, 563, 603, 602
563, 563, 564, 604, 603
564, 564, 565, 605, 604
565, 565, 566, 606, 605
566, 566, 567, 607, 606
567, 567, 568, 608, 607
568, 568, 569, 609, 608
569, 569, 570, 610, 609
570, 570, 571, 611, 610
571, 571, 572, 612, 611
572, 572, 573, 613, 612
573, 573, 574, 614, 613
574, 574, 575, 615, 614
575, 575, 576, 616, 615
576, 576, 577, 617, 616
577, 577, 578, 618, 617
578, 578, 579, 619, 618
579, 579, 580, 620, 619
580, 580, 581, 621, 620
581, 581, 582, 622, 621
582, 582, 583, 623, 622
583, 583, 584, 624, 623
584, 584, 585, 625, 624
585, 585, 586, 626, 625
586, 586, 587, 627, 626
587, 587, 588, 628, 627
588, 588, 589, 629, 628
589, 589, 590, 630, 629
590, 590, 591, 631, 630
591, 591, 592, 632, 631
592, 592, 593, 633, 632
593, 593, 594, 634, 633
594, 594, 595, 635, 634
595, 595, 596, 636, 635
596, 596, 597, 637, 636
597, 597, 598, 638, 637
598, 598, 599, 639, 638
599, 599, 600, 640, 639
600, 600, 561, 601, 640
601, 601, 602, 642, 641
602, 602, 603, 643, 642
603, 603, 604, 644, 643
604, 604, 605, 645, 644
605, 605, 606, 646, 645
606, 606, 607, 647, 646
607, 607, 608, 648, 647
608, 608, 609, 649, 648
609, 609, 610, 650, 649
610, 610, 611, 651, 650
611, 611, 612, 652, 651
612, 612, 613, 653, 652
613, 613, 614, 654, 653
614, 614, 615, 655, 654
615, 615, 616, 656, 655
616, 616, 617, 657, 656
617, 617, 618, 658, 657
618, 618, 619, 659, 658
619, 619, 620, 660, 659
620, 620, 621, 661, 660
621, 621, 622, 662, 661
622, 622, 623, 663, 662
623, 623, 624, 664, 663
624, 624, 625, 665, 664
625, 625, 626, 666, 665
626, 626, 627, 667, 666
627, 627, 628, 668, 667
628, 628, 629, 669, 668
629, 629, 630, 670, 669
630, 630, 631, 671, 670
631, 631, 632, 672, 671
632, 632, 633, 673, 672
633, 633, 634, 674, 673
634, 634, 635, 675, 674
635, 635, 636, 676, 675
636, 636, 637, 677, 676
637, 637, 638, 678, 677
638, 638, 639, 679, 678
639, 639, 640, 680, 679
640, 640, 601, 641, 680
641, 641, 642, 682, 681
642, 642, 643, 683, 682
643, 643, 644, 684, 683
644, 644, 645, 685, 684
645, 645, 646, 686, 685
646, 646, 647, 687, 686
647, 647, 648, 688, 687
648, 648, 649, 689, 688
649, 649, 650, 690, 689
650, 650, 651, 691, 690
651, 651, 652, 692, 691
652, 652, 653, 693, 692
653, 653, 654, 694, 693
654, 654, 655, 695, 694
655, 655, 656, 696, 695
656, 656, 657, 697, 696
657, 657, 658, 698, 697
658, 658, 659, 699, 698
659, 659, 660, 700, 699
660, 660, 661, 701, 700
661, 661, 662, 702, 701
662, 662, 663, 703, 702
663, 663, 664, 704, 703
664, 664, 665, 705, 704
665, 665, 666, 706, 705
666, 666, 667, 707, 706
667, 667, 668, 708, 707
668, 668, 669, 709, 708
669, 669, 670, 710, 709
670, 670, 671, 711, 710
671, 671, 672, 712, 711
672, 672, 673, 713, 712
673, 673, 674, 714, 713
674, 674, 675, 715, 714
675, 675, 676, 716, 715
676, 676, 677, 717, 716
677, 677, 678, 718, 717
678, 678, 679, 719, 718
679, 679, 680, 720, 719
680, 680, 641, 681, 720
681, 681, 682, 722, 721
682, 682, 683, 723, 722
683, 683, 684, 724, 723
684, 684, 685, 725, 724
685, 685, 686, 726, 725
686, 686, 687, 727, 726
687, 687, 688, 728, 727
688, 688, 689, 729, 728
689, 689, 690, 730, 729
690, 690, 691, 731, 730
691, 691, 692, 732, 731
692, 692, 693, 733, 732
693, 693, 694, 734, 733
694, 694, 695, 735, 734
695, 695, 696, 736, 735
696, 696, 697, 737, 736
697, 697, 698, 738, 737
698, 698, 699, 739, 738
699, 699, 700, 740, 739
700, 700, 701, 741, 740
701, 701, 702, 742, 741
702, 702, 703, 743, 742
703, 703, 704, 744, 743
704, 704, 705, 745, 744
705, 705, 706, 746, 745
706, 706, 707, 747, 746
707, 707, 708, 748, 747
708, 708, 709, 749, 748
709, 709, 710, 750, 749
710, 710, 711, 751, 750
711, 711, 712, 752, 751
712, 712, 713, 753, 752
713, 713, 714, 754, 753
714, 714, 715, 755, 754
715, 715, 716, 756, 755
716, 716, 717, 757, 756
717, 717, 718, 758, 757
718, 718, 719, 759, 758
719, 719, 720, 760, 759
720, 720, 681, 721, 760
721, 721, 722, 762, 761
722, 722, 723, 763, 762
723, 723, 724, 764, 763
724, 724, 725, 765, 764
725, 725, 726, 766, 765
726, 726, 727, 767, 766
727, 727, 728, 768, 767
728, 728, 729, 769, 768
729, 729, 730, 770, 769
730, 730, 731, 771, 770
731, 731, 732, 772, 771
732, 732, 733, 773, 772
733, 733, 734, 774, 773
734, 734, 735, 775, 774
735, 735, 736, 776, 775
736, 736, 737, 777, 776
737, 737, 738, 778, 777
738, 738, 739, 779, 778
739, 739, 740, 780, 779
740, 740, 741, 781, 780
741, 741, 742, 782, 781
742, 742, 743, 783, 782
743, 743, 744, 784, 783
744, 744, 745, 785, 784
745, 745, 746, 786, 785
746, 746, 747, 787, 786
747, 747, 748, 788, 787
748, 748, 749, 789, 788
749, 749, 750, 790, 789
750, 750, 751, 791, 790
751, 751, 752, 792, 791
752, 752, 753, 793, 792
753, 753, 754, 794, 793
754, 754, 755, 795, 794
755, 755, 756, 796, 795
756, 756, 757, 797, 796
757, 757, 758, 798, 797
758, 758, 759, 799, 798
759, 759, 760, 800, 799
760, 760, 721, 761, 800
761, 761, 762, 802, 801
762, 762, 763, 803, 802
763, 763, 764, 804, 803
764, 764, 765, 805, 804
765, 765, 766, 806, 805
766, 766, 767, 807, 806
767, 767, 768, 808, 807
768, 768, 769, 809, 808
769, 769, 770, 810, 809
770, 770, 771, 811, 810
771, 771, 772, 812, 811
772, 772, 773, 813, 812
773, 773, 774, 814, 813
774, 774, 775, 815, 814
775, 775, 776, 816, 815
776, 776, 777, 817, 816
777, 777, 778, 818, 817
778, 778, 779, 819, 818
779, 779, 780, 820, 819
780, 780, 781, 821, 820
781, 781, 782, 822, 821
782, 782, 783, 823, 822
783, 783, 784, 824, 823
784, 784, 785, 825, 824
785, 785, 786, 826, 825
786, 786, 787, 827, 826
787, 787, 788, 828, 827
788, 788, 789, 829, 828
789, 789, 790, 830, 829
790, 790, 791, 831, 830
791, 791, 792, 832, 831
792, 792, 793, 833, 832
793, 793, 794, 834, 833
794, 794, 795, 835, 834
795, 795, 796, 836, 835
796, 796, 797, 837, 836
797, 797, 798, 838, 837
798, 798, 799, 839, 838
799, 799, 800, 840, 839
800, 800, 761, 801, 840
*NSET, NSET=NALL
1, 2, 3, 4, 5, 6, 7, 8, 9, 10, 11, 12, 13, 14, 15, 16
17, 18, 19, 20, 21, 22, 23, 24, 25, 26, 27, 28, 29, 30, 31, 32
33, 34, 35, 36, 37, 38, 39, 40, 41, 42, 43, 44, 45, 46, 47, 48
49, 50, 51, 52, 53, 54, 55, 56, 57, 58, 59, 60, 61, 62, 63, 64
65, 66, 67, 68, 69, 70, 71, 72, 73, 74, 75, 76, 77, 78, 79, 80
81, 82, 83, 84, 85, 86, 87, 88, 89, 90, 91, 92, 93, 94, 95, 96
97, 98, 99, 100, 101, 102, 103, 104, 105, 106, 107, 108, 109, 110, 111, 112
113, 114, 115, 116, 117, 118, 119, 120, 121, 122, 123, 124, 125, 126, 127, 128
129, 130, 131, 132, 133, 134, 135, 136, 137, 138, 139, 140, 141, 142, 143, 144
145, 146, 147, 148, 149, 150, 151, 152, 153, 154, 155, 156, 157, 158, 159, 160
161, 162, 163, 164, 165, 166, 167, 168, 169, 170, 171, 172, 173, 174, 175, 176
177, 178, 179, 180, 181, 182, 183, 184, 185, 186, 187, 188, 189, 190, 191, 192
193, 194, 195, 196, 197, 198, 199, 200, 201, 202, 203, 204, 205, 206, 207, 208
209, 210, 211, 212, 213, 214, 215, 216, 217, 218, 219, 220, 221, 222, 223, 224
225, 226, 227, 228, 229, 230, 231, 232, 233, 234, 235, 236, 237, 238, 239, 240
241, 242, 243, 244, 245, 246, 247, 248, 249, 250, 251, 252, 253, 254, 255, 256
257, 258, 259, 260, 261, 262, 263, 264, 265, 266, 267, 268, 269, 270, 271, 272
273, 274, 275, 276, 277, 278, 279, 280, 281, 282, 283, 284, 285, 286, 287, 288
289, 290, 291, 292, 293, 294, 295, 296, 297, 298, 299, 300, 301, 302, 303, 304
305, 306, 307, 308, 309, 310, 311, 312, 313, 314, 315, 316, 317, 318, 319, 320
321, 322, 323, 324, 325, 326, 327, 328, 329, 330, 331, 332, 333, 334, 335, 336
337, 338, 339, 340, 341, 342, 343, 344, 345, 346, 347, 348, 349, 350, 351, 352
353, 354, 355, 356, 357, 358, 359, 360, 361, 362, 363, 364, 365, 366, 367, 368
369, 370, 371, 372, 373, 374, 375, 376, 377, 378, 379, 380, 381, 382, 383, 384
385, 386, 387, 388, 389, 390, 391, 392, 393, 394, 395, 396, 397, 398, 399, 400
401, 402, 403, 404, 405, 406, 407, 408, 409, 410, 411, 412, 413, 414, 415, 416
417, 418, 419, 420, 421, 422, 423, 424, 425, 426, 427, 428, 429, 430, 431, 432
433, 434, 435, 436, 437, 438, 439, 440, 441, 442, 443, 444, 445, 446, 447, 448
449, 450, 451, 452, 453, 454, 455, 456, 457, 458, 459, 460, 461, 462, 463, 464
465, 466, 467, 468, 469, 470, 471, 472, 473, 474, 475, 476, 477, 478, 479, 480
481, 482, 483, 484, 485, 486, 487, 488, 489, 490, 491, 492, 493, 494, 495, 496
497, 498, 499, 500, 501, 502, 503, 504, 505, 506, 507, 508, 509, 510, 511, 512
513, 514, 515, 516, 517, 518, 519, 520, 521, 522, 523, 524, 525, 526, 527, 528
529, 530, 531, 532, 533, 534, 535, 536, 537, 538, 539, 540, 541, 542, 543, 544
545, 546, 547, 548, 549, 550, 551, 552, 553, 554, 555, 556, 557, 558, 559, 560
561, 562, 563, 564, 565, 566, 567, 568, 569, 570, 571, 572, 573, 574, 575, 576
577, 578, 579, 580, 581, 582, 583, 584, 585, 586, 587, 588, 589, 590, 591, 592
593, 594, 595, 596, 597, 598, 599, 600, 601, 602, 603, 604, 605, 606, 607, 608
609, 610, 611, 612, 613, 614, 615, 616, 617, 618, 619, 620, 621, 622, 623, 624
625, 626, 627, 628, 629, 630, 631, 632, 633, 634, 635, 636, 637, 638, 639, 640
641, 642, 643, 644, 645, 646, 647, 648, 649, 650, 651, 652, 653, 654, 655, 656
657, 658, 659, 660, 661, 662, 663, 664, 665, 666, 667, 668, 669, 670, 671, 672
673, 674, 675, 676, 677, 678, 679, 680, 681, 682, 683, 684, 685, 686, 687, 688
689, 690, 691, 692, 693, 694, 695, 696, 697, 698, 699, 700, 701, 702, 703, 704
705, 706, 707, 708, 709, 710, 711, 712, 713, 714, 715, 716, 717, 718, 719, 720
721, 722, 723, 724, 725, 726, 727, 728, 729, 730, 731, 732, 733, 734, 735, 736
737, 738, 739, 740, 741, 742, 743, 744, 745, 746, 747, 748, 749, 750, 751, 752
753, 754, 755, 756, 757, 758, 759, 760, 761, 762, 763, 764, 765, 766, 767, 768
769, 770, 771, 772, 773, 774, 775, 776, 777, 778, 779, 780, 781, 782, 783, 784
785, 786, 787, 788, 789, 790, 791, 792, 793, 794, 795, 796, 797, 798, 799, 800
801, 802, 803, 804, 805, 806, 807, 808, 809, 810, 811, 812, 813, 814, 815, 816
817, 818, 819, 820, 821, 822, 823, 824, 825, 826, 827, 828, 829, 830, 831, 832
833, 834, 835, 836, 837, 838, 839, 840
*NSET, NSET=NBASE
1, 2, 3, 4, 5, 6, 7, 8, 9, 10, 11, 12, 13, 14, 15, 16
17, 18, 19, 20, 21, 22, 23, 24, 25, 26, 27, 28, 29, 30, 31, 32
33, 34, 35, 36, 37, 38, 39, 40
*NSET, NSET=NTOP
801, 802, 803, 804, 805, 806, 807, 808, 809, 810, 811, 812, 813, 814, 815, 816
817, 818, 819, 820, 821, 822, 823, 824, 825, 826, 827, 828, 829, 830, 831, 832
833, 834, 835, 836, 837, 838, 839, 840
*ELSET, ELSET=WIND_SEC_01
1, 41, 81, 121, 161, 201, 241, 281, 321, 361, 401, 441, 481, 521, 561, 601
641, 681, 721, 761
*ELSET, ELSET=WIND_SEC_02
2, 42, 82, 122, 162, 202, 242, 282, 322, 362, 402, 442, 482, 522, 562, 602
642, 682, 722, 762
*ELSET, ELSET=WIND_SEC_03
3, 43, 83, 123, 163, 203, 243, 283, 323, 363, 403, 443, 483, 523, 563, 603
643, 683, 723, 763
*ELSET, ELSET=WIND_SEC_04
4, 44, 84, 124, 164, 204, 244, 284, 324, 364, 404, 444, 484, 524, 564, 604
644, 684, 724, 764
*ELSET, ELSET=WIND_SEC_05
5, 45, 85, 125, 165, 205, 245, 285, 325, 365, 405, 445, 485, 525, 565, 605
645, 685, 725, 765
*ELSET, ELSET=WIND_SEC_06
6, 46, 86, 126, 166, 206, 246, 286, 326, 366, 406, 446, 486, 526, 566, 606
646, 686, 726, 766
*ELSET, ELSET=WIND_SEC_07
7, 47, 87, 127, 167, 207, 247, 287, 327, 367, 407, 447, 487, 527, 567, 607
647, 687, 727, 767
*ELSET, ELSET=WIND_SEC_08
8, 48, 88, 128, 168, 208, 248, 288, 328, 368, 408, 448, 488, 528, 568, 608
648, 688, 728, 768
*ELSET, ELSET=WIND_SEC_09
9, 49, 89, 129, 169, 209, 249, 289, 329, 369, 409, 449, 489, 529, 569, 609
649, 689, 729, 769
*ELSET, ELSET=WIND_SEC_10
10, 50, 90, 130, 170, 210, 250, 290, 330, 370, 410, 450, 490, 530, 570, 610
650, 690, 730, 770
*ELSET, ELSET=WIND_SEC_11
11, 51, 91, 131, 171, 211, 251, 291, 331, 371, 411, 451, 491, 531, 571, 611
651, 691, 731, 771
*ELSET, ELSET=WIND_SEC_12
12, 52, 92, 132, 172, 212, 252, 292, 332, 372, 412, 452, 492, 532, 572, 612
652, 692, 732, 772
*ELSET, ELSET=WIND_SEC_13
13, 53, 93, 133, 173, 213, 253, 293, 333, 373, 413, 453, 493, 533, 573, 613
653, 693, 733, 773
*ELSET, ELSET=WIND_SEC_14
14, 54, 94, 134, 174, 214, 254, 294, 334, 374, 414, 454, 494, 534, 574, 614
654, 694, 734, 774
*ELSET, ELSET=WIND_SEC_15
15, 55, 95, 135, 175, 215, 255, 295, 335, 375, 415, 455, 495, 535, 575, 615
655, 695, 735, 775
*ELSET, ELSET=WIND_SEC_16
16, 56, 96, 136, 176, 216, 256, 296, 336, 376, 416, 456, 496, 536, 576, 616
656, 696, 736, 776
*ELSET, ELSET=WIND_SEC_17
17, 57, 97, 137, 177, 217, 257, 297, 337, 377, 417, 457, 497, 537, 577, 617
657, 697, 737, 777
*ELSET, ELSET=WIND_SEC_18
18, 58, 98, 138, 178, 218, 258, 298, 338, 378, 418, 458, 498, 538, 578, 618
658, 698, 738, 778
*ELSET, ELSET=WIND_SEC_19
19, 59, 99, 139, 179, 219, 259, 299, 339, 379, 419, 459, 499, 539, 579, 619
659, 699, 739, 779
*ELSET, ELSET=WIND_SEC_20
20, 60, 100, 140, 180, 220, 260, 300, 340, 380, 420, 460, 500, 540, 580, 620
660, 700, 740, 780
*ELSET, ELSET=WIND_SEC_21
21, 61, 101, 141, 181, 221, 261, 301, 341, 381, 421, 461, 501, 541, 581, 621
661, 701, 741, 781
*ELSET, ELSET=WIND_SEC_22
22, 62, 102, 142, 182, 222, 262, 302, 342, 382, 422, 462, 502, 542, 582, 622
662, 702, 742, 782
*ELSET, ELSET=WIND_SEC_23
23, 63, 103, 143, 183, 223, 263, 303, 343, 383, 423, 463, 503, 543, 583, 623
663, 703, 743, 783
*ELSET, ELSET=WIND_SEC_24
24, 64, 104, 144, 184, 224, 264, 304, 344, 384, 424, 464, 504, 544, 584, 624
664, 704, 744, 784
*ELSET, ELSET=WIND_SEC_25
25, 65, 105, 145, 185, 225, 265, 305, 345, 385, 425, 465, 505, 545, 585, 625
665, 705, 745, 785
*ELSET, ELSET=WIND_SEC_26
26, 66, 106, 146, 186, 226, 266, 306, 346, 386, 426, 466, 506, 546, 586, 626
666, 706, 746, 786
*ELSET, ELSET=WIND_SEC_27
27, 67, 107, 147, 187, 227, 267, 307, 347, 387, 427, 467, 507, 547, 587, 627
667, 707, 747, 787
*ELSET, ELSET=WIND_SEC_28
28, 68, 108, 148, 188, 228, 268, 308, 348, 388, 428, 468, 508, 548, 588, 628
668, 708, 748, 788
*ELSET, ELSET=WIND_SEC_29
29, 69, 109, 149, 189, 229, 269, 309, 349, 389, 429, 469, 509, 549, 589, 629
669, 709, 749, 789
*ELSET, ELSET=WIND_SEC_30
30, 70, 110, 150, 190, 230, 270, 310, 350, 390, 430, 470, 510, 550, 590, 630
670, 710, 750, 790
*ELSET, ELSET=WIND_SEC_31
31, 71, 111, 151, 191, 231, 271, 311, 351, 391, 431, 471, 511, 551, 591, 631
671, 711, 751, 791
*ELSET, ELSET=WIND_SEC_32
32, 72, 112, 152, 192, 232, 272, 312, 352, 392, 432, 472, 512, 552, 592, 632
672, 712, 752, 792
*ELSET, ELSET=WIND_SEC_33
33, 73, 113, 153, 193, 233, 273, 313, 353, 393, 433, 473, 513, 553, 593, 633
673, 713, 753, 793
*ELSET, ELSET=WIND_SEC_34
34, 74, 114, 154, 194, 234, 274, 314, 354, 394, 434, 474, 514, 554, 594, 634
674, 714, 754, 794
*ELSET, ELSET=WIND_SEC_35
35, 75, 115, 155, 195, 235, 275, 315, 355, 395, 435, 475, 515, 555, 595, 635
675, 715, 755, 795
*ELSET, ELSET=WIND_SEC_36
36, 76, 116, 156, 196, 236, 276, 316, 356, 396, 436, 476, 516, 556, 596, 636
676, 716, 756, 796
*ELSET, ELSET=WIND_SEC_37
37, 77, 117, 157, 197, 237, 277, 317, 357, 397, 437, 477, 517, 557, 597, 637
677, 717, 757, 797
*ELSET, ELSET=WIND_SEC_38
38, 78, 118, 158, 198, 238, 278, 318, 358, 398, 438, 478, 518, 558, 598, 638
678, 718, 758, 798
*ELSET, ELSET=WIND_SEC_39
39, 79, 119, 159, 199, 239, 279, 319, 359, 399, 439, 479, 519, 559, 599, 639
679, 719, 759, 799
*ELSET, ELSET=WIND_SEC_40
40, 80, 120, 160, 200, 240, 280, 320, 360, 400, 440, 480, 520, 560, 600, 640
680, 720, 760, 800
*MATERIAL, NAME=EquivalentReinforcedConcrete_C30_37
*ELASTIC
33000000000.000000, 0.200000
*DENSITY
2500.000000
*SHELL SECTION, ELSET=EALL, MATERIAL=EquivalentReinforcedConcrete_C30_37
0.200000
*BOUNDARY
NBASE, 1, 6
*STEP, NAME=STATIC_WIND, NLGEOM=NO
*STATIC
0.1, 1.0, 1e-05, 1.0
*DLOAD
WIND_SEC_01, P, -448.612800
WIND_SEC_02, P, -437.566464
WIND_SEC_03, P, -415.745790
WIND_SEC_04, P, -383.688074
WIND_SEC_05, P, -342.182685
WIND_SEC_06, P, -292.251622
WIND_SEC_07, P, -235.124354
WIND_SEC_08, P, -172.207545
WIND_SEC_09, P, -105.050414
WIND_SEC_10, P, -35.306593
WIND_SEC_11, P, 35.306593
WIND_SEC_12, P, 105.050414
WIND_SEC_13, P, 172.207545
WIND_SEC_14, P, 235.124354
WIND_SEC_15, P, 281.250000
WIND_SEC_16, P, 281.250000
WIND_SEC_17, P, 281.250000
WIND_SEC_18, P, 281.250000
WIND_SEC_19, P, 281.250000
WIND_SEC_20, P, 281.250000
WIND_SEC_21, P, 281.250000
WIND_SEC_22, P, 281.250000
WIND_SEC_23, P, 281.250000
WIND_SEC_24, P, 281.250000
WIND_SEC_25, P, 281.250000
WIND_SEC_26, P, 281.250000
WIND_SEC_27, P, 235.124354
WIND_SEC_28, P, 172.207545
WIND_SEC_29, P, 105.050414
WIND_SEC_30, P, 35.306593
WIND_SEC_31, P, -35.306593
WIND_SEC_32, P, -105.050414
WIND_SEC_33, P, -172.207545
WIND_SEC_34, P, -235.124354
WIND_SEC_35, P, -292.251622
WIND_SEC_36, P, -342.182685
WIND_SEC_37, P, -383.688074
WIND_SEC_38, P, -415.745790
WIND_SEC_39, P, -437.566464
WIND_SEC_40, P, -448.612800
*OUTPUT, FIELD, FREQUENCY=1
*NODE OUTPUT, NSET=NALL
U
*NODE OUTPUT, NSET=NBASE
RF
*ELEMENT OUTPUT, ELSET=EALL
S, E
*END STEP
