*HEADING
** Task 7 generated input for S2 / PSO (mathematical_fallback)
*PREPRINT, ECHO=NO, MODEL=NO, HISTORY=NO, CONTACT=NO
*NODE
1, 39.300000, 0.000000, 0.000000
2, 38.816152, 0.000000, 6.147874
3, 37.376521, 0.000000, 12.144368
4, 35.016556, 0.000000, 17.841827
5, 31.794368, 0.000000, 23.099960
6, 27.789297, 0.000000, 27.789297
7, 23.099960, 0.000000, 31.794368
8, 17.841827, 0.000000, 35.016556
9, 12.144368, 0.000000, 37.376521
10, 6.147874, 0.000000, 38.816152
11, 0.000000, 0.000000, 39.300000
12, -6.147874, 0.000000, 38.816152
13, -12.144368, 0.000000, 37.376521
14, -17.841827, 0.000000, 35.016556
15, -23.099960, 0.000000, 31.794368
16, -27.789297, 0.000000, 27.789297
17, -31.794368, 0.000000, 23.099960
18, -35.016556, 0.000000, 17.841827
19, -37.376521, 0.000000, 12.144368
20, -38.816152, 0.000000, 6.147874
21, -39.300000, 0.000000, 0.000000
22, -38.816152, 0.000000, -6.147874
23, -37.376521, 0.000000, -12.144368
24, -35.016556, 0.000000, -17.841827
25, -31.794368, 0.000000, -23.099960
26, -27.789297, 0.000000, -27.789297
27, -23.099960, 0.000000, -31.794368
28, -17.841827, 0.000000, -35.016556
29, -12.144368, 0.000000, -37.376521
30, -6.147874, 0.000000, -38.816152
31, -0.000000, 0.000000, -39.300000
32, 6.147874, 0.000000, -38.816152
33, 12.144368, 0.000000, -37.376521
34, 17.841827, 0.000000, -35.016556
35, 23.099960, 0.000000, -31.794368
36, 27.789297, 0.000000, -27.789297
37, 31.794368, 0.000000, -23.099960
38, 35.016556, 0.000000, -17.841827
39, 37.376521, 0.000000, -12.144368
40, 38.816152, 0.000000, -6.147874
41, 37.943691, 1.800000, 0.000000
42, 37.476542, 1.800000, 5.935701
43, 36.086595, 1.800000, 11.725245
44, 33.808077, 1.800000, 17.226075
45, 30.697091, 1.800000, 22.302742
46, 26.830242, 1.800000, 26.830242
47, 22.302742, 1.800000, 30.697091
48, 17.226075, 1.800000, 33.808077
49, 11.725245, 1.800000, 36.086595
50, 5.935701, 1.800000, 37.476542
51, 0.000000, 1.800000, 37.943691
52, -5.935701, 1.800000, 37.476542
53, -11.725245, 1.800000, 36.086595
54, -17.226075, 1.800000, 33.808077
55, -22.302742, 1.800000, 30.697091
56, -26.830242, 1.800000, 26.830242
57, -30.697091, 1.800000, 22.302742
58, -33.808077, 1.800000, 17.226075
59, -36.086595, 1.800000, 11.725245
60, -37.476542, 1.800000, 5.935701
61, -37.943691, 1.800000, 0.000000
62, -37.476542, 1.800000, -5.935701
63, -36.086595, 1.800000, -11.725245
64, -33.808077, 1.800000, -17.226075
65, -30.697091, 1.800000, -22.302742
66, -26.830242, 1.800000, -26.830242
67, -22.302742, 1.800000, -30.697091
68, -17.226075, 1.800000, -33.808077
69, -11.725245, 1.800000, -36.086595
70, -5.935701, 1.800000, -37.476542
71, -0.000000, 1.800000, -37.943691
72, 5.935701, 1.800000, -37.476542
73, 11.725245, 1.800000, -36.086595
74, 17.226075, 1.800000, -33.808077
75, 22.302742, 1.800000, -30.697091
76, 26.830242, 1.800000, -26.830242
77, 30.697091, 1.800000, -22.302742
78, 33.808077, 1.800000, -17.226075
79, 36.086595, 1.800000, -11.725245
80, 37.476542, 1.800000, -5.935701
81, 36.587383, 3.600000, 0.000000
82, 36.136931, 3.600000, 5.723528
83, 34.796669, 3.600000, 11.306123
84, 32.599597, 3.600000, 16.610324
85, 29.599815, 3.600000, 21.505524
86, 25.871187, 3.600000, 25.871187
87, 21.505524, 3.600000, 29.599815
88, 16.610324, 3.600000, 32.599597
89, 11.306123, 3.600000, 34.796669
90, 5.723528, 3.600000, 36.136931
91, 0.000000, 3.600000, 36.587383
92, -5.723528, 3.600000, 36.136931
93, -11.306123, 3.600000, 34.796669
94, -16.610324, 3.600000, 32.599597
95, -21.505524, 3.600000, 29.599815
96, -25.871187, 3.600000, 25.871187
97, -29.599815, 3.600000, 21.505524
98, -32.599597, 3.600000, 16.610324
99, -34.796669, 3.600000, 11.306123
100, -36.136931, 3.600000, 5.723528
101, -36.587383, 3.600000, 0.000000
102, -36.136931, 3.600000, -5.723528
103, -34.796669, 3.600000, -11.306123
104, -32.599597, 3.600000, -16.610324
105, -29.599815, 3.600000, -21.505524
106, -25.871187, 3.600000, -25.871187
107, -21.505524, 3.600000, -29.599815
108, -16.610324, 3.600000, -32.599597
109, -11.306123, 3.600000, -34.796669
110, -5.723528, 3.600000, -36.136931
111, -0.000000, 3.600000, -36.587383
112, 5.723528, 3.600000, -36.136931
113, 11.306123, 3.600000, -34.796669
114, 16.610324, 3.600000, -32.599597
115, 21.505524, 3.600000, -29.599815
116, 25.871187, 3.600000, -25.871187
117, 29.599815, 3.600000, -21.505524
118, 32.599597, 3.600000, -16.610324
119, 34.796669, 3.600000, -11.306123
120, 36.136931, 3.600000, -5.723528
121, 35.536325, 5.450000, 0.000000
122, 35.098814, 5.450000, 5.559106
123, 33.797053, 5.450000, 10.981328
124, 31.663097, 5.450000, 16.133154
125, 28.749491, 5.450000, 20.887728
126, 25.127976, 5.450000, 25.127976
127, 20.887728, 5.450000, 28.749491
128, 16.133154, 5.450000, 31.663097
129, 10.981328, 5.450000, 33.797053
130, 5.559106, 5.450000, 35.098814
131, 0.000000, 5.450000, 35.536325
132, -5.559106, 5.450000, 35.098814
133, -10.981328, 5.450000, 33.797053
134, -16.133154, 5.450000, 31.663097
135, -20.887728, 5.450000, 28.749491
136, -25.127976, 5.450000, 25.127976
137, -28.749491, 5.450000, 20.887728
138, -31.663097, 5.450000, 16.133154
139, -33.797053, 5.450000, 10.981328
140, -35.098814, 5.450000, 5.559106
141, -35.536325, 5.450000, 0.000000
142, -35.098814, 5.450000, -5.559106
143, -33.797053, 5.450000, -10.981328
144, -31.663097, 5.450000, -16.133154
145, -28.749491, 5.450000, -20.887728
146, -25.127976, 5.450000, -25.127976
147, -20.887728, 5.450000, -28.749491
148, -16.133154, 5.450000, -31.663097
149, -10.981328, 5.450000, -33.797053
150, -5.559106, 5.450000, -35.098814
151, -0.000000, 5.450000, -35.536325
152, 5.559106, 5.450000, -35.098814
153, 10.981328, 5.450000, -33.797053
154, 16.133154, 5.450000, -31.663097
155, 20.887728, 5.450000, -28.749491
156, 25.127976, 5.450000, -25.127976
157, 28.749491, 5.450000, -20.887728
158, 31.663097, 5.450000, -16.133154
159, 33.797053, 5.450000, -10.981328
160, 35.098814, 5.450000, -5.559106
161, 34.485266, 7.300000, 0.000000
162, 34.060696, 7.300000, 5.394684
163, 32.797437, 7.300000, 10.656533
164, 30.726597, 7.300000, 15.655983
165, 27.899167, 7.300000, 20.269931
166, 24.384766, 7.300000, 24.384766
167, 20.269931, 7.300000, 27.899167
168, 15.655983, 7.300000, 30.726597
169, 10.656533, 7.300000, 32.797437
170, 5.394684, 7.300000, 34.060696
171, 0.000000, 7.300000, 34.485266
172, -5.394684, 7.300000, 34.060696
173, -10.656533, 7.300000, 32.797437
174, -15.655983, 7.300000, 30.726597
175, -20.269931, 7.300000, 27.899167
176, -24.384766, 7.300000, 24.384766
177, -27.899167, 7.300000, 20.269931
178, -30.726597, 7.300000, 15.655983
179, -32.797437, 7.300000, 10.656533
180, -34.060696, 7.300000, 5.394684
181, -34.485266, 7.300000, 0.000000
182, -34.060696, 7.300000, -5.394684
183, -32.797437, 7.300000, -10.656533
184, -30.726597, 7.300000, -15.655983
185, -27.899167, 7.300000, -20.269931
186, -24.384766, 7.300000, -24.384766
187, -20.269931, 7.300000, -27.899167
188, -15.655983, 7.300000, -30.726597
189, -10.656533, 7.300000, -32.797437
190, -5.394684, 7.300000, -34.060696
191, -0.000000, 7.300000, -34.485266
192, 5.394684, 7.300000, -34.060696
193, 10.656533, 7.300000, -32.797437
194, 15.655983, 7.300000, -30.726597
195, 20.269931, 7.300000, -27.899167
196, 24.384766, 7.300000, -24.384766
197, 27.899167, 7.300000, -20.269931
198, 30.726597, 7.300000, -15.655983
199, 32.797437, 7.300000, -10.656533
200, 34.060696, 7.300000, -5.394684
201, 33.172376, 9.100000, 0.000000
202, 32.763969, 9.100000, 5.189303
203, 31.548804, 9.100000, 10.250828
204, 29.556803, 9.100000, 15.059944
205, 26.837016, 9.100000, 19.498233
206, 23.456412, 9.100000, 23.456412
207, 19.498233, 9.100000, 26.837016
208, 15.059944, 9.100000, 29.556803
209, 10.250828, 9.100000, 31.548804
210, 5.189303, 9.100000, 32.763969
211, 0.000000, 9.100000, 33.172376
212, -5.189303, 9.100000, 32.763969
213, -10.250828, 9.100000, 31.548804
214, -15.059944, 9.100000, 29.556803
215, -19.498233, 9.100000, 26.837016
216, -23.456412, 9.100000, 23.456412
217, -26.837016, 9.100000, 19.498233
218, -29.556803, 9.100000, 15.059944
219, -31.548804, 9.100000, 10.250828
220, -32.763969, 9.100000, 5.189303
221, -33.172376, 9.100000, 0.000000
222, -32.763969, 9.100000, -5.189303
223, -31.548804, 9.100000, -10.250828
224, -29.556803, 9.100000, -15.059944
225, -26.837016, 9.100000, -19.498233
226, -23.456412, 9.100000, -23.456412
227, -19.498233, 9.100000, -26.837016
228, -15.059944, 9.100000, -29.556803
229, -10.250828, 9.100000, -31.548804
230, -5.189303, 9.100000, -32.763969
231, -0.000000, 9.100000, -33.172376
232, 5.189303, 9.100000, -32.763969
233, 10.250828, 9.100000, -31.548804
234, 15.059944, 9.100000, -29.556803
235, 19.498233, 9.100000, -26.837016
236, 23.456412, 9.100000, -23.456412
237, 26.837016, 9.100000, -19.498233
238, 29.556803, 9.100000, -15.059944
239, 31.548804, 9.100000, -10.250828
240, 32.763969, 9.100000, -5.189303
241, 31.859486, 10.900000, 0.000000
242, 31.467242, 10.900000, 4.983922
243, 30.300171, 10.900000, 9.845122
244, 28.387009, 10.900000, 14.463904
245, 25.774865, 10.900000, 18.726536
246, 22.528058, 10.900000, 22.528058
247, 18.726536, 10.900000, 25.774865
248, 14.463904, 10.900000, 28.387009
249, 9.845122, 10.900000, 30.300171
250, 4.983922, 10.900000, 31.467242
251, 0.000000, 10.900000, 31.859486
252, -4.983922, 10.900000, 31.467242
253, -9.845122, 10.900000, 30.300171
254, -14.463904, 10.900000, 28.387009
255, -18.726536, 10.900000, 25.774865
256, -22.528058, 10.900000, 22.528058
257, -25.774865, 10.900000, 18.726536
258, -28.387009, 10.900000, 14.463904
259, -30.300171, 10.900000, 9.845122
260, -31.467242, 10.900000, 4.983922
261, -31.859486, 10.900000, 0.000000
262, -31.467242, 10.900000, -4.983922
263, -30.300171, 10.900000, -9.845122
264, -28.387009, 10.900000, -14.463904
265, -25.774865, 10.900000, -18.726536
266, -22.528058, 10.900000, -22.528058
267, -18.726536, 10.900000, -25.774865
268, -14.463904, 10.900000, -28.387009
269, -9.845122, 10.900000, -30.300171
270, -4.983922, 10.900000, -31.467242
271, -0.000000, 10.900000, -31.859486
272, 4.983922, 10.900000, -31.467242
273, 9.845122, 10.900000, -30.300171
274, 14.463904, 10.900000, -28.387009
275, 18.726536, 10.900000, -25.774865
276, 22.528058, 10.900000, -22.528058
277, 25.774865, 10.900000, -18.726536
278, 28.387009, 10.900000, -14.463904
279, 30.300171, 10.900000, -9.845122
280, 31.467242, 10.900000, -4.983922
281, 26.890172, 12.750000, 0.000000
282, 26.559109, 12.750000, 4.206550
283, 25.574073, 12.750000, 8.309520
284, 23.959318, 12.750000, 12.207883
285, 21.754606, 12.750000, 15.805646
286, 19.014223, 12.750000, 19.014223
287, 15.805646, 12.750000, 21.754606
288, 12.207883, 12.750000, 23.959318
289, 8.309520, 12.750000, 25.574073
290, 4.206550, 12.750000, 26.559109
291, 0.000000, 12.750000, 26.890172
292, -4.206550, 12.750000, 26.559109
293, -8.309520, 12.750000, 25.574073
294, -12.207883, 12.750000, 23.959318
295, -15.805646, 12.750000, 21.754606
296, -19.014223, 12.750000, 19.014223
297, -21.754606, 12.750000, 15.805646
298, -23.959318, 12.750000, 12.207883
299, -25.574073, 12.750000, 8.309520
300, -26.559109, 12.750000, 4.206550
301, -26.890172, 12.750000, 0.000000
302, -26.559109, 12.750000, -4.206550
303, -25.574073, 12.750000, -8.309520
304, -23.959318, 12.750000, -12.207883
305, -21.754606, 12.750000, -15.805646
306, -19.014223, 12.750000, -19.014223
307, -15.805646, 12.750000, -21.754606
308, -12.207883, 12.750000, -23.959318
309, -8.309520, 12.750000, -25.574073
310, -4.206550, 12.750000, -26.559109
311, -0.000000, 12.750000, -26.890172
312, 4.206550, 12.750000, -26.559109
313, 8.309520, 12.750000, -25.574073
314, 12.207883, 12.750000, -23.959318
315, 15.805646, 12.750000, -21.754606
316, 19.014223, 12.750000, -19.014223
317, 21.754606, 12.750000, -15.805646
318, 23.959318, 12.750000, -12.207883
319, 25.574073, 12.750000, -8.309520
320, 26.559109, 12.750000, -4.206550
321, 21.920858, 14.600000, 0.000000
322, 21.650976, 14.600000, 3.429178
323, 20.847975, 14.600000, 6.773918
324, 19.531627, 14.600000, 9.951861
325, 17.734347, 14.600000, 12.884757
326, 15.500387, 14.600000, 15.500387
327, 12.884757, 14.600000, 17.734347
328, 9.951861, 14.600000, 19.531627
329, 6.773918, 14.600000, 20.847975
330, 3.429178, 14.600000, 21.650976
331, 0.000000, 14.600000, 21.920858
332, -3.429178, 14.600000, 21.650976
333, -6.773918, 14.600000, 20.847975
334, -9.951861, 14.600000, 19.531627
335, -12.884757, 14.600000, 17.734347
336, -15.500387, 14.600000, 15.500387
337, -17.734347, 14.600000, 12.884757
338, -19.531627, 14.600000, 9.951861
339, -20.847975, 14.600000, 6.773918
340, -21.650976, 14.600000, 3.429178
341, -21.920858, 14.600000, 0.000000
342, -21.650976, 14.600000, -3.429178
343, -20.847975, 14.600000, -6.773918
344, -19.531627, 14.600000, -9.951861
345, -17.734347, 14.600000, -12.884757
346, -15.500387, 14.600000, -15.500387
347, -12.884757, 14.600000, -17.734347
348, -9.951861, 14.600000, -19.531627
349, -6.773918, 14.600000, -20.847975
350, -3.429178, 14.600000, -21.650976
351, -0.000000, 14.600000, -21.920858
352, 3.429178, 14.600000, -21.650976
353, 6.773918, 14.600000, -20.847975
354, 9.951861, 14.600000, -19.531627
355, 12.884757, 14.600000, -17.734347
356, 15.500387, 14.600000, -15.500387
357, 17.734347, 14.600000, -12.884757
358, 19.531627, 14.600000, -9.951861
359, 20.847975, 14.600000, -6.773918
360, 21.650976, 14.600000, -3.429178
361, 17.455846, 16.400000, 0.000000
362, 17.240935, 16.400000, 2.730696
363, 16.601496, 16.400000, 5.394153
364, 15.553273, 16.400000, 7.924788
365, 14.122076, 16.400000, 10.260289
366, 12.343147, 16.400000, 12.343147
367, 10.260289, 16.400000, 14.122076
368, 7.924788, 16.400000, 15.553273
369, 5.394153, 16.400000, 16.601496
370, 2.730696, 16.400000, 17.240935
371, 0.000000, 16.400000, 17.455846
372, -2.730696, 16.400000, 17.240935
373, -5.394153, 16.400000, 16.601496
374, -7.924788, 16.400000, 15.553273
375, -10.260289, 16.400000, 14.122076
376, -12.343147, 16.400000, 12.343147
377, -14.122076, 16.400000, 10.260289
378, -15.553273, 16.400000, 7.924788
379, -16.601496, 16.400000, 5.394153
380, -17.240935, 16.400000, 2.730696
381, -17.455846, 16.400000, 0.000000
382, -17.240935, 16.400000, -2.730696
383, -16.601496, 16.400000, -5.394153
384, -15.553273, 16.400000, -7.924788
385, -14.122076, 16.400000, -10.260289
386, -12.343147, 16.400000, -12.343147
387, -10.260289, 16.400000, -14.122076
388, -7.924788, 16.400000, -15.553273
389, -5.394153, 16.400000, -16.601496
390, -2.730696, 16.400000, -17.240935
391, -0.000000, 16.400000, -17.455846
392, 2.730696, 16.400000, -17.240935
393, 5.394153, 16.400000, -16.601496
394, 7.924788, 16.400000, -15.553273
395, 10.260289, 16.400000, -14.122076
396, 12.343147, 16.400000, -12.343147
397, 14.122076, 16.400000, -10.260289
398, 15.553273, 16.400000, -7.924788
399, 16.601496, 16.400000, -5.394153
400, 17.240935, 16.400000, -2.730696
401, 12.990834, 18.200000, 0.000000
402, 12.830895, 18.200000, 2.032214
403, 12.355017, 18.200000, 4.014388
404, 11.574918, 18.200000, 5.897715
405, 10.509805, 18.200000, 7.635821
406, 9.185907, 18.200000, 9.185907
407, 7.635821, 18.200000, 10.509805
408, 5.897715, 18.200000, 11.574918
409, 4.014388, 18.200000, 12.355017
410, 2.032214, 18.200000, 12.830895
411, 0.000000, 18.200000, 12.990834
412, -2.032214, 18.200000, 12.830895
413, -4.014388, 18.200000, 12.355017
414, -5.897715, 18.200000, 11.574918
415, -7.635821, 18.200000, 10.509805
416, -9.185907, 18.200000, 9.185907
417, -10.509805, 18.200000, 7.635821
418, -11.574918, 18.200000, 5.897715
419, -12.355017, 18.200000, 4.014388
420, -12.830895, 18.200000, 2.032214
421, -12.990834, 18.200000, 0.000000
422, -12.830895, 18.200000, -2.032214
423, -12.355017, 18.200000, -4.014388
424, -11.574918, 18.200000, -5.897715
425, -10.509805, 18.200000, -7.635821
426, -9.185907, 18.200000, -9.185907
427, -7.635821, 18.200000, -10.509805
428, -5.897715, 18.200000, -11.574918
429, -4.014388, 18.200000, -12.355017
430, -2.032214, 18.200000, -12.830895
431, -0.000000, 18.200000, -12.990834
432, 2.032214, 18.200000, -12.830895
433, 4.014388, 18.200000, -12.355017
434, 5.897715, 18.200000, -11.574918
435, 7.635821, 18.200000, -10.509805
436, 9.185907, 18.200000, -9.185907
437, 10.509805, 18.200000, -7.635821
438, 11.574918, 18.200000, -5.897715
439, 12.355017, 18.200000, -4.014388
440, 12.830895, 18.200000, -2.032214
441, 8.995417, 20.050000, 0.000000
442, 8.884668, 20.050000, 1.407193
443, 8.555150, 20.050000, 2.779737
444, 8.014975, 20.050000, 4.083834
445, 7.277445, 20.050000, 5.287373
446, 6.360720, 20.050000, 6.360720
447, 5.287373, 20.050000, 7.277445
448, 4.083834, 20.050000, 8.014975
449, 2.779737, 20.050000, 8.555150
450, 1.407193, 20.050000, 8.884668
451, 0.000000, 20.050000, 8.995417
452, -1.407193, 20.050000, 8.884668
453, -2.779737, 20.050000, 8.555150
454, -4.083834, 20.050000, 8.014975
455, -5.287373, 20.050000, 7.277445
456, -6.360720, 20.050000, 6.360720
457, -7.277445, 20.050000, 5.287373
458, -8.014975, 20.050000, 4.083834
459, -8.555150, 20.050000, 2.779737
460, -8.884668, 20.050000, 1.407193
461, -8.995417, 20.050000, 0.000000
462, -8.884668, 20.050000, -1.407193
463, -8.555150, 20.050000, -2.779737
464, -8.014975, 20.050000, -4.083834
465, -7.277445, 20.050000, -5.287373
466, -6.360720, 20.050000, -6.360720
467, -5.287373, 20.050000, -7.277445
468, -4.083834, 20.050000, -8.014975
469, -2.779737, 20.050000, -8.555150
470, -1.407193, 20.050000, -8.884668
471, -0.000000, 20.050000, -8.995417
472, 1.407193, 20.050000, -8.884668
473, 2.779737, 20.050000, -8.555150
474, 4.083834, 20.050000, -8.014975
475, 5.287373, 20.050000, -7.277445
476, 6.360720, 20.050000, -6.360720
477, 7.277445, 20.050000, -5.287373
478, 8.014975, 20.050000, -4.083834
479, 8.555150, 20.050000, -2.779737
480, 8.884668, 20.050000, -1.407193
481, 5.000000, 21.900000, 0.000000
482, 4.938442, 21.900000, 0.782172
483, 4.755283, 21.900000, 1.545085
484, 4.455033, 21.900000, 2.269952
485, 4.045085, 21.900000, 2.938926
486, 3.535534, 21.900000, 3.535534
487, 2.938926, 21.900000, 4.045085
488, 2.269952, 21.900000, 4.455033
489, 1.545085, 21.900000, 4.755283
490, 0.782172, 21.900000, 4.938442
491, 0.000000, 21.900000, 5.000000
492, -0.782172, 21.900000, 4.938442
493, -1.545085, 21.900000, 4.755283
494, -2.269952, 21.900000, 4.455033
495, -2.938926, 21.900000, 4.045085
496, -3.535534, 21.900000, 3.535534
497, -4.045085, 21.900000, 2.938926
498, -4.455033, 21.900000, 2.269952
499, -4.755283, 21.900000, 1.545085
500, -4.938442, 21.900000, 0.782172
501, -5.000000, 21.900000, 0.000000
502, -4.938442, 21.900000, -0.782172
503, -4.755283, 21.900000, -1.545085
504, -4.455033, 21.900000, -2.269952
505, -4.045085, 21.900000, -2.938926
506, -3.535534, 21.900000, -3.535534
507, -2.938926, 21.900000, -4.045085
508, -2.269952, 21.900000, -4.455033
509, -1.545085, 21.900000, -4.755283
510, -0.782172, 21.900000, -4.938442
511, -0.000000, 21.900000, -5.000000
512, 0.782172, 21.900000, -4.938442
513, 1.545085, 21.900000, -4.755283
514, 2.269952, 21.900000, -4.455033
515, 2.938926, 21.900000, -4.045085
516, 3.535534, 21.900000, -3.535534
517, 4.045085, 21.900000, -2.938926
518, 4.455033, 21.900000, -2.269952
519, 4.755283, 21.900000, -1.545085
520, 4.938442, 21.900000, -0.782172
521, 5.000000, 23.700000, 0.000000
522, 4.938442, 23.700000, 0.782172
523, 4.755283, 23.700000, 1.545085
524, 4.455033, 23.700000, 2.269952
525, 4.045085, 23.700000, 2.938926
526, 3.535534, 23.700000, 3.535534
527, 2.938926, 23.700000, 4.045085
528, 2.269952, 23.700000, 4.455033
529, 1.545085, 23.700000, 4.755283
530, 0.782172, 23.700000, 4.938442
531, 0.000000, 23.700000, 5.000000
532, -0.782172, 23.700000, 4.938442
533, -1.545085, 23.700000, 4.755283
534, -2.269952, 23.700000, 4.455033
535, -2.938926, 23.700000, 4.045085
536, -3.535534, 23.700000, 3.535534
537, -4.045085, 23.700000, 2.938926
538, -4.455033, 23.700000, 2.269952
539, -4.755283, 23.700000, 1.545085
540, -4.938442, 23.700000, 0.782172
541, -5.000000, 23.700000, 0.000000
542, -4.938442, 23.700000, -0.782172
543, -4.755283, 23.700000, -1.545085
544, -4.455033, 23.700000, -2.269952
545, -4.045085, 23.700000, -2.938926
546, -3.535534, 23.700000, -3.535534
547, -2.938926, 23.700000, -4.045085
548, -2.269952, 23.700000, -4.455033
549, -1.545085, 23.700000, -4.755283
550, -0.782172, 23.700000, -4.938442
551, -0.000000, 23.700000, -5.000000
552, 0.782172, 23.700000, -4.938442
553, 1.545085, 23.700000, -4.755283
554, 2.269952, 23.700000, -4.455033
555, 2.938926, 23.700000, -4.045085
556, 3.535534, 23.700000, -3.535534
557, 4.045085, 23.700000, -2.938926
558, 4.455033, 23.700000, -2.269952
559, 4.755283, 23.700000, -1.545085
560, 4.938442, 23.700000, -0.782172
561, 5.000000, 25.500000, 0.000000
562, 4.938442, 25.500000, 0.782172
563, 4.755283, 25.500000, 1.545085
564, 4.455033, 25.500000, 2.269952
565, 4.045085, 25.500000, 2.938926
566, 3.535534, 25.500000, 3.535534
567, 2.938926, 25.500000, 4.045085
568, 2.269952, 25.500000, 4.455033
569, 1.545085, 25.500000, 4.755283
570, 0.782172, 25.500000, 4.938442
571, 0.000000, 25.500000, 5.000000
572, -0.782172, 25.500000, 4.938442
573, -1.545085, 25.500000, 4.755283
574, -2.269952, 25.500000, 4.455033
575, -2.938926, 25.500000, 4.045085
576, -3.535534, 25.500000, 3.535534
577, -4.045085, 25.500000, 2.938926
578, -4.455033, 25.500000, 2.269952
579, -4.755283, 25.500000, 1.545085
580, -4.938442, 25.500000, 0.782172
581, -5.000000, 25.500000, 0.000000
582, -4.938442, 25.500000, -0.782172
583, -4.755283, 25.500000, -1.545085
584, -4.455033, 25.500000, -2.269952
585, -4.045085, 25.500000, -2.938926
586, -3.535534, 25.500000, -3.535534
587, -2.938926, 25.500000, -4.045085
588, -2.269952, 25.500000, -4.455033
589, -1.545085, 25.500000, -4.755283
590, -0.782172, 25.500000, -4.938442
591, -0.000000, 25.500000, -5.000000
592, 0.782172, 25.500000, -4.938442
593, 1.545085, 25.500000, -4.755283
594, 2.269952, 25.500000, -4.455033
595, 2.938926, 25.500000, -4.045085
596, 3.535534, 25.500000, -3.535534
597, 4.045085, 25.500000, -2.938926
598, 4.455033, 25.500000, -2.269952
599, 4.755283, 25.500000, -1.545085
600, 4.938442, 25.500000, -0.782172
601, 11.007916, 27.300000, 0.000000
602, 10.872390, 27.300000, 1.722017
603, 10.469150, 27.300000, 3.401633
604, 9.808125, 27.300000, 4.997489
605, 8.905591, 27.300000, 6.470291
606, 7.783772, 27.300000, 7.783772
607, 6.470291, 27.300000, 8.905591
608, 4.997489, 27.300000, 9.808125
609, 3.401633, 27.300000, 10.469150
610, 1.722017, 27.300000, 10.872390
611, 0.000000, 27.300000, 11.007916
612, -1.722017, 27.300000, 10.872390
613, -3.401633, 27.300000, 10.469150
614, -4.997489, 27.300000, 9.808125
615, -6.470291, 27.300000, 8.905591
616, -7.783772, 27.300000, 7.783772
617, -8.905591, 27.300000, 6.470291
618, -9.808125, 27.300000, 4.997489
619, -10.469150, 27.300000, 3.401633
620, -10.872390, 27.300000, 1.722017
621, -11.007916, 27.300000, 0.000000
622, -10.872390, 27.300000, -1.722017
623, -10.469150, 27.300000, -3.401633
624, -9.808125, 27.300000, -4.997489
625, -8.905591, 27.300000, -6.470291
626, -7.783772, 27.300000, -7.783772
627, -6.470291, 27.300000, -8.905591
628, -4.997489, 27.300000, -9.808125
629, -3.401633, 27.300000, -10.469150
630, -1.722017, 27.300000, -10.872390
631, -0.000000, 27.300000, -11.007916
632, 1.722017, 27.300000, -10.872390
633, 3.401633, 27.300000, -10.469150
634, 4.997489, 27.300000, -9.808125
635, 6.470291, 27.300000, -8.905591
636, 7.783772, 27.300000, -7.783772
637, 8.905591, 27.300000, -6.470291
638, 9.808125, 27.300000, -4.997489
639, 10.469150, 27.300000, -3.401633
640, 10.872390, 27.300000, -1.722017
641, 17.015832, 29.100000, 0.000000
642, 16.806339, 29.100000, 2.661863
643, 16.183018, 29.100000, 5.258181
644, 15.161218, 29.100000, 7.725026
645, 13.766097, 29.100000, 10.001655
646, 12.032010, 29.100000, 12.032010
647, 10.001655, 29.100000, 13.766097
648, 7.725026, 29.100000, 15.161218
649, 5.258181, 29.100000, 16.183018
650, 2.661863, 29.100000, 16.806339
651, 0.000000, 29.100000, 17.015832
652, -2.661863, 29.100000, 16.806339
653, -5.258181, 29.100000, 16.183018
654, -7.725026, 29.100000, 15.161218
655, -10.001655, 29.100000, 13.766097
656, -12.032010, 29.100000, 12.032010
657, -13.766097, 29.100000, 10.001655
658, -15.161218, 29.100000, 7.725026
659, -16.183018, 29.100000, 5.258181
660, -16.806339, 29.100000, 2.661863
661, -17.015832, 29.100000, 0.000000
662, -16.806339, 29.100000, -2.661863
663, -16.183018, 29.100000, -5.258181
664, -15.161218, 29.100000, -7.725026
665, -13.766097, 29.100000, -10.001655
666, -12.032010, 29.100000, -12.032010
667, -10.001655, 29.100000, -13.766097
668, -7.725026, 29.100000, -15.161218
669, -5.258181, 29.100000, -16.183018
670, -2.661863, 29.100000, -16.806339
671, -0.000000, 29.100000, -17.015832
672, 2.661863, 29.100000, -16.806339
673, 5.258181, 29.100000, -16.183018
674, 7.725026, 29.100000, -15.161218
675, 10.001655, 29.100000, -13.766097
676, 12.032010, 29.100000, -12.032010
677, 13.766097, 29.100000, -10.001655
678, 15.161218, 29.100000, -7.725026
679, 16.183018, 29.100000, -5.258181
680, 16.806339, 29.100000, -2.661863
681, 20.019068, 30.950000, 0.000000
682, 19.772600, 30.950000, 3.131672
683, 19.039265, 30.950000, 6.186232
684, 17.837120, 30.950000, 9.088467
685, 16.195766, 30.950000, 11.766913
686, 14.155618, 30.950000, 14.155618
687, 11.766913, 30.950000, 16.195766
688, 9.088467, 30.950000, 17.837120
689, 6.186232, 30.950000, 19.039265
690, 3.131672, 30.950000, 19.772600
691, 0.000000, 30.950000, 20.019068
692, -3.131672, 30.950000, 19.772600
693, -6.186232, 30.950000, 19.039265
694, -9.088467, 30.950000, 17.837120
695, -11.766913, 30.950000, 16.195766
696, -14.155618, 30.950000, 14.155618
697, -16.195766, 30.950000, 11.766913
698, -17.837120, 30.950000, 9.088467
699, -19.039265, 30.950000, 6.186232
700, -19.772600, 30.950000, 3.131672
701, -20.019068, 30.950000, 0.000000
702, -19.772600, 30.950000, -3.131672
703, -19.039265, 30.950000, -6.186232
704, -17.837120, 30.950000, -9.088467
705, -16.195766, 30.950000, -11.766913
706, -14.155618, 30.950000, -14.155618
707, -11.766913, 30.950000, -16.195766
708, -9.088467, 30.950000, -17.837120
709, -6.186232, 30.950000, -19.039265
710, -3.131672, 30.950000, -19.772600
711, -0.000000, 30.950000, -20.019068
712, 3.131672, 30.950000, -19.772600
713, 6.186232, 30.950000, -19.039265
714, 9.088467, 30.950000, -17.837120
715, 11.766913, 30.950000, -16.195766
716, 14.155618, 30.950000, -14.155618
717, 16.195766, 30.950000, -11.766913
718, 17.837120, 30.950000, -9.088467
719, 19.039265, 30.950000, -6.186232
720, 19.772600, 30.950000, -3.131672
721, 23.022303, 32.800000, 0.000000
722, 22.738860, 32.800000, 3.601482
723, 21.895511, 32.800000, 7.114283
724, 20.513022, 32.800000, 10.451907
725, 18.625434, 32.800000, 13.532170
726, 16.279227, 32.800000, 16.279227
727, 13.532170, 32.800000, 18.625434
728, 10.451907, 32.800000, 20.513022
729, 7.114283, 32.800000, 21.895511
730, 3.601482, 32.800000, 22.738860
731, 0.000000, 32.800000, 23.022303
732, -3.601482, 32.800000, 22.738860
733, -7.114283, 32.800000, 21.895511
734, -10.451907, 32.800000, 20.513022
735, -13.532170, 32.800000, 18.625434
736, -16.279227, 32.800000, 16.279227
737, -18.625434, 32.800000, 13.532170
738, -20.513022, 32.800000, 10.451907
739, -21.895511, 32.800000, 7.114283
740, -22.738860, 32.800000, 3.601482
741, -23.022303, 32.800000, 0.000000
742, -22.738860, 32.800000, -3.601482
743, -21.895511, 32.800000, -7.114283
744, -20.513022, 32.800000, -10.451907
745, -18.625434, 32.800000, -13.532170
746, -16.279227, 32.800000, -16.279227
747, -13.532170, 32.800000, -18.625434
748, -10.451907, 32.800000, -20.513022
749, -7.114283, 32.800000, -21.895511
750, -3.601482, 32.800000, -22.738860
751, -0.000000, 32.800000, -23.022303
752, 3.601482, 32.800000, -22.738860
753, 7.114283, 32.800000, -21.895511
754, 10.451907, 32.800000, -20.513022
755, 13.532170, 32.800000, -18.625434
756, 16.279227, 32.800000, -16.279227
757, 18.625434, 32.800000, -13.532170
758, 20.513022, 32.800000, -10.451907
759, 21.895511, 32.800000, -7.114283
760, 22.738860, 32.800000, -3.601482
761, 25.211152, 34.650000, 0.000000
762, 24.900760, 34.650000, 3.943893
763, 23.977230, 34.650000, 7.790674
764, 22.463300, 34.650000, 11.445623
765, 20.396250, 34.650000, 14.818743
766, 17.826976, 34.650000, 17.826976
767, 14.818743, 34.650000, 20.396250
768, 11.445623, 34.650000, 22.463300
769, 7.790674, 34.650000, 23.977230
770, 3.943893, 34.650000, 24.900760
771, 0.000000, 34.650000, 25.211152
772, -3.943893, 34.650000, 24.900760
773, -7.790674, 34.650000, 23.977230
774, -11.445623, 34.650000, 22.463300
775, -14.818743, 34.650000, 20.396250
776, -17.826976, 34.650000, 17.826976
777, -20.396250, 34.650000, 14.818743
778, -22.463300, 34.650000, 11.445623
779, -23.977230, 34.650000, 7.790674
780, -24.900760, 34.650000, 3.943893
781, -25.211152, 34.650000, 0.000000
782, -24.900760, 34.650000, -3.943893
783, -23.977230, 34.650000, -7.790674
784, -22.463300, 34.650000, -11.445623
785, -20.396250, 34.650000, -14.818743
786, -17.826976, 34.650000, -17.826976
787, -14.818743, 34.650000, -20.396250
788, -11.445623, 34.650000, -22.463300
789, -7.790674, 34.650000, -23.977230
790, -3.943893, 34.650000, -24.900760
791, -0.000000, 34.650000, -25.211152
792, 3.943893, 34.650000, -24.900760
793, 7.790674, 34.650000, -23.977230
794, 11.445623, 34.650000, -22.463300
795, 14.818743, 34.650000, -20.396250
796, 17.826976, 34.650000, -17.826976
797, 20.396250, 34.650000, -14.818743
798, 22.463300, 34.650000, -11.445623
799, 23.977230, 34.650000, -7.790674
800, 24.900760, 34.650000, -3.943893
801, 27.400000, 36.500000, 0.000000
802, 27.062661, 36.500000, 4.286304
803, 26.058949, 36.500000, 8.467066
804, 24.413579, 36.500000, 12.439340
805, 22.167066, 36.500000, 16.105316
806, 19.374726, 36.500000, 19.374726
807, 16.105316, 36.500000, 22.167066
808, 12.439340, 36.500000, 24.413579
809, 8.467066, 36.500000, 26.058949
810, 4.286304, 36.500000, 27.062661
811, 0.000000, 36.500000, 27.400000
812, -4.286304, 36.500000, 27.062661
813, -8.467066, 36.500000, 26.058949
814, -12.439340, 36.500000, 24.413579
815, -16.105316, 36.500000, 22.167066
816, -19.374726, 36.500000, 19.374726
817, -22.167066, 36.500000, 16.105316
818, -24.413579, 36.500000, 12.439340
819, -26.058949, 36.500000, 8.467066
820, -27.062661, 36.500000, 4.286304
821, -27.400000, 36.500000, 0.000000
822, -27.062661, 36.500000, -4.286304
823, -26.058949, 36.500000, -8.467066
824, -24.413579, 36.500000, -12.439340
825, -22.167066, 36.500000, -16.105316
826, -19.374726, 36.500000, -19.374726
827, -16.105316, 36.500000, -22.167066
828, -12.439340, 36.500000, -24.413579
829, -8.467066, 36.500000, -26.058949
830, -4.286304, 36.500000, -27.062661
831, -0.000000, 36.500000, -27.400000
832, 4.286304, 36.500000, -27.062661
833, 8.467066, 36.500000, -26.058949
834, 12.439340, 36.500000, -24.413579
835, 16.105316, 36.500000, -22.167066
836, 19.374726, 36.500000, -19.374726
837, 22.167066, 36.500000, -16.105316
838, 24.413579, 36.500000, -12.439340
839, 26.058949, 36.500000, -8.467066
840, 27.062661, 36.500000, -4.286304
*ELEMENT, TYPE=S4R, ELSET=EALL
1, 1, 2, 42, 41
2, 2, 3, 43, 42
3, 3, 4, 44, 43
4, 4, 5, 45, 44
5, 5, 6, 46, 45
6, 6, 7, 47, 46
7, 7, 8, 48, 47
8, 8, 9, 49, 48
9, 9, 10, 50, 49
10, 10, 11, 51, 50
11, 11, 12, 52, 51
12, 12, 13, 53, 52
13, 13, 14, 54, 53
14, 14, 15, 55, 54
15, 15, 16, 56, 55
16, 16, 17, 57, 56
17, 17, 18, 58, 57
18, 18, 19, 59, 58
19, 19, 20, 60, 59
20, 20, 21, 61, 60
21, 21, 22, 62, 61
22, 22, 23, 63, 62
23, 23, 24, 64, 63
24, 24, 25, 65, 64
25, 25, 26, 66, 65
26, 26, 27, 67, 66
27, 27, 28, 68, 67
28, 28, 29, 69, 68
29, 29, 30, 70, 69
30, 30, 31, 71, 70
31, 31, 32, 72, 71
32, 32, 33, 73, 72
33, 33, 34, 74, 73
34, 34, 35, 75, 74
35, 35, 36, 76, 75
36, 36, 37, 77, 76
37, 37, 38, 78, 77
38, 38, 39, 79, 78
39, 39, 40, 80, 79
40, 40, 1, 41, 80
41, 41, 42, 82, 81
42, 42, 43, 83, 82
43, 43, 44, 84, 83
44, 44, 45, 85, 84
45, 45, 46, 86, 85
46, 46, 47, 87, 86
47, 47, 48, 88, 87
48, 48, 49, 89, 88
49, 49, 50, 90, 89
50, 50, 51, 91, 90
51, 51, 52, 92, 91
52, 52, 53, 93, 92
53, 53, 54, 94, 93
54, 54, 55, 95, 94
55, 55, 56, 96, 95
56, 56, 57, 97, 96
57, 57, 58, 98, 97
58, 58, 59, 99, 98
59, 59, 60, 100, 99
60, 60, 61, 101, 100
61, 61, 62, 102, 101
62, 62, 63, 103, 102
63, 63, 64, 104, 103
64, 64, 65, 105, 104
65, 65, 66, 106, 105
66, 66, 67, 107, 106
67, 67, 68, 108, 107
68, 68, 69, 109, 108
69, 69, 70, 110, 109
70, 70, 71, 111, 110
71, 71, 72, 112, 111
72, 72, 73, 113, 112
73, 73, 74, 114, 113
74, 74, 75, 115, 114
75, 75, 76, 116, 115
76, 76, 77, 117, 116
77, 77, 78, 118, 117
78, 78, 79, 119, 118
79, 79, 80, 120, 119
80, 80, 41, 81, 120
81, 81, 82, 122, 121
82, 82, 83, 123, 122
83, 83, 84, 124, 123
84, 84, 85, 125, 124
85, 85, 86, 126, 125
86, 86, 87, 127, 126
87, 87, 88, 128, 127
88, 88, 89, 129, 128
89, 89, 90, 130, 129
90, 90, 91, 131, 130
91, 91, 92, 132, 131
92, 92, 93, 133, 132
93, 93, 94, 134, 133
94, 94, 95, 135, 134
95, 95, 96, 136, 135
96, 96, 97, 137, 136
97, 97, 98, 138, 137
98, 98, 99, 139, 138
99, 99, 100, 140, 139
100, 100, 101, 141, 140
101, 101, 102, 142, 141
102, 102, 103, 143, 142
103, 103, 104, 144, 143
104, 104, 105, 145, 144
105, 105, 106, 146, 145
106, 106, 107, 147, 146
107, 107, 108, 148, 147
108, 108, 109, 149, 148
109, 109, 110, 150, 149
110, 110, 111, 151, 150
111, 111, 112, 152, 151
112, 112, 113, 153, 152
113, 113, 114, 154, 153
114, 114, 115, 155, 154
115, 115, 116, 156, 155
116, 116, 117, 157, 156
117, 117, 118, 158, 157
118, 118, 119, 159, 158
119, 119, 120, 160, 159
120, 120, 81, 121, 160
121, 121, 122, 162, 161
122, 122, 123, 163, 162
123, 123, 124, 164, 163
124, 124, 125, 165, 164
125, 125, 126, 166, 165
126, 126, 127, 167, 166
127, 127, 128, 168, 167
128, 128, 129, 169, 168
129, 129, 130, 170, 169
130, 130, 131, 171, 170
131, 131, 132, 172, 171
132, 132, 133, 173, 172
133, 133, 134, 174, 173
134, 134, 135, 175, 174
135, 135, 136, 176, 175
136, 136, 137, 177, 176
137, 137, 138, 178, 177
138, 138, 139, 179, 178
139, 139, 140, 180, 179
140, 140, 141, 181, 180
141, 141, 142, 182, 181
142, 142, 143, 183, 182
143, 143, 144, 184, 183
144, 144, 145, 185, 184
145, 145, 146, 186, 185
146, 146, 147, 187, 186
147, 147, 148, 188, 187
148, 148, 149, 189, 188
149, 149, 150, 190, 189
150, 150, 151, 191, 190
151, 151, 152, 192, 191
152, 152, 153, 193, 192
153, 153, 154, 194, 193
154, 154, 155, 195, 194
155, 155, 156, 196, 195
156, 156, 157, 197, 196
157, 157, 158, 198, 197
158, 158, 159, 199, 198
159, 159, 160, 200, 199
160, 160, 121, 161, 200
161, 161, 162, 202, 201
162, 162, 163, 203, 202
163, 163, 164, 204, 203
164, 164, 165, 205, 204
165, 165, 166, 206, 205
166, 166, 167, 207, 206
167, 167, 168, 208, 207
168, 168, 169, 209, 208
169, 169, 170, 210, 209
170, 170, 171, 211, 210
171, 171, 172, 212, 211
172, 172, 173, 213, 212
173, 173, 174, 214, 213
174, 174, 175, 215, 214
175, 175, 176, 216, 215
176, 176, 177, 217, 216
177, 177, 178, 218, 217
178, 178, 179, 219, 218
179, 179, 180, 220, 219
180, 180, 181, 221, 220
181, 181, 182, 222, 221
182, 182, 183, 223, 222
183, 183, 184, 224, 223
184, 184, 185, 225, 224
185, 185, 186, 226, 225
186, 186, 187, 227, 226
187, 187, 188, 228, 227
188, 188, 189, 229, 228
189, 189, 190, 230, 229
190, 190, 191, 231, 230
191, 191, 192, 232, 231
192, 192, 193, 233, 232
193, 193, 194, 234, 233
194, 194, 195, 235, 234
195, 195, 196, 236, 235
196, 196, 197, 237, 236
197, 197, 198, 238, 237
198, 198, 199, 239, 238
199, 199, 200, 240, 239
200, 200, 161, 201, 240
201, 201, 202, 242, 241
202, 202, 203, 243, 242
203, 203, 204, 244, 243
204, 204, 205, 245, 244
205, 205, 206, 246, 245
206, 206, 207, 247, 246
207, 207, 208, 248, 247
208, 208, 209, 249, 248
209, 209, 210, 250, 249
210, 210, 211, 251, 250
211, 211, 212, 252, 251
212, 212, 213, 253, 252
213, 213, 214, 254, 253
214, 214, 215, 255, 254
215, 215, 216, 256, 255
216, 216, 217, 257, 256
217, 217, 218, 258, 257
218, 218, 219, 259, 258
219, 219, 220, 260, 259
220, 220, 221, 261, 260
221, 221, 222, 262, 261
222, 222, 223, 263, 262
223, 223, 224, 264, 263
224, 224, 225, 265, 264
225, 225, 226, 266, 265
226, 226, 227, 267, 266
227, 227, 228, 268, 267
228, 228, 229, 269, 268
229, 229, 230, 270, 269
230, 230, 231, 271, 270
231, 231, 232, 272, 271
232, 232, 233, 273, 272
233, 233, 234, 274, 273
234, 234, 235, 275, 274
235, 235, 236, 276, 275
236, 236, 237, 277, 276
237, 237, 238, 278, 277
238, 238, 239, 279, 278
239, 239, 240, 280, 279
240, 240, 201, 241, 280
241, 241, 242, 282, 281
242, 242, 243, 283, 282
243, 243, 244, 284, 283
244, 244, 245, 285, 284
245, 245, 246, 286, 285
246, 246, 247, 287, 286
247, 247, 248, 288, 287
248, 248, 249, 289, 288
249, 249, 250, 290, 289
250, 250, 251, 291, 290
251, 251, 252, 292, 291
252, 252, 253, 293, 292
253, 253, 254, 294, 293
254, 254, 255, 295, 294
255, 255, 256, 296, 295
256, 256, 257, 297, 296
257, 257, 258, 298, 297
258, 258, 259, 299, 298
259, 259, 260, 300, 299
260, 260, 261, 301, 300
261, 261, 262, 302, 301
262, 262, 263, 303, 302
263, 263, 264, 304, 303
264, 264, 265, 305, 304
265, 265, 266, 306, 305
266, 266, 267, 307, 306
267, 267, 268, 308, 307
268, 268, 269, 309, 308
269, 269, 270, 310, 309
270, 270, 271, 311, 310
271, 271, 272, 312, 311
272, 272, 273, 313, 312
273, 273, 274, 314, 313
274, 274, 275, 315, 314
275, 275, 276, 316, 315
276, 276, 277, 317, 316
277, 277, 278, 318, 317
278, 278, 279, 319, 318
279, 279, 280, 320, 319
280, 280, 241, 281, 320
281, 281, 282, 322, 321
282, 282, 283, 323, 322
283, 283, 284, 324, 323
284, 284, 285, 325, 324
285, 285, 286, 326, 325
286, 286, 287, 327, 326
287, 287, 288, 328, 327
288, 288, 289, 329, 328
289, 289, 290, 330, 329
290, 290, 291, 331, 330
291, 291, 292, 332, 331
292, 292, 293, 333, 332
293, 293, 294, 334, 333
294, 294, 295, 335, 334
295, 295, 296, 336, 335
296, 296, 297, 337, 336
297, 297, 298, 338, 337
298, 298, 299, 339, 338
299, 299, 300, 340, 339
300, 300, 301, 341, 340
301, 301, 302, 342, 341
302, 302, 303, 343, 342
303, 303, 304, 344, 343
304, 304, 305, 345, 344
305, 305, 306, 346, 345
306, 306, 307, 347, 346
307, 307, 308, 348, 347
308, 308, 309, 349, 348
309, 309, 310, 350, 349
310, 310, 311, 351, 350
311, 311, 312, 352, 351
312, 312, 313, 353, 352
313, 313, 314, 354, 353
314, 314, 315, 355, 354
315, 315, 316, 356, 355
316, 316, 317, 357, 356
317, 317, 318, 358, 357
318, 318, 319, 359, 358
319, 319, 320, 360, 359
320, 320, 281, 321, 360
321, 321, 322, 362, 361
322, 322, 323, 363, 362
323, 323, 324, 364, 363
324, 324, 325, 365, 364
325, 325, 326, 366, 365
326, 326, 327, 367, 366
327, 327, 328, 368, 367
328, 328, 329, 369, 368
329, 329, 330, 370, 369
330, 330, 331, 371, 370
331, 331, 332, 372, 371
332, 332, 333, 373, 372
333, 333, 334, 374, 373
334, 334, 335, 375, 374
335, 335, 336, 376, 375
336, 336, 337, 377, 376
337, 337, 338, 378, 377
338, 338, 339, 379, 378
339, 339, 340, 380, 379
340, 340, 341, 381, 380
341, 341, 342, 382, 381
342, 342, 343, 383, 382
343, 343, 344, 384, 383
344, 344, 345, 385, 384
345, 345, 346, 386, 385
346, 346, 347, 387, 386
347, 347, 348, 388, 387
348, 348, 349, 389, 388
349, 349, 350, 390, 389
350, 350, 351, 391, 390
351, 351, 352, 392, 391
352, 352, 353, 393, 392
353, 353, 354, 394, 393
354, 354, 355, 395, 394
355, 355, 356, 396, 395
356, 356, 357, 397, 396
357, 357, 358, 398, 397
358, 358, 359, 399, 398
359, 359, 360, 400, 399
360, 360, 321, 361, 400
361, 361, 362, 402, 401
362, 362, 363, 403, 402
363, 363, 364, 404, 403
364, 364, 365, 405, 404
365, 365, 366, 406, 405
366, 366, 367, 407, 406
367, 367, 368, 408, 407
368, 368, 369, 409, 408
369, 369, 370, 410, 409
370, 370, 371, 411, 410
371, 371, 372, 412, 411
372, 372, 373, 413, 412
373, 373, 374, 414, 413
374, 374, 375, 415, 414
375, 375, 376, 416, 415
376, 376, 377, 417, 416
377, 377, 378, 418, 417
378, 378, 379, 419, 418
379, 379, 380, 420, 419
380, 380, 381, 421, 420
381, 381, 382, 422, 421
382, 382, 383, 423, 422
383, 383, 384, 424, 423
384, 384, 385, 425, 424
385, 385, 386, 426, 425
386, 386, 387, 427, 426
387, 387, 388, 428, 427
388, 388, 389, 429, 428
389, 389, 390, 430, 429
390, 390, 391, 431, 430
391, 391, 392, 432, 431
392, 392, 393, 433, 432
393, 393, 394, 434, 433
394, 394, 395, 435, 434
395, 395, 396, 436, 435
396, 396, 397, 437, 436
397, 397, 398, 438, 437
398, 398, 399, 439, 438
399, 399, 400, 440, 439
400, 400, 361, 401, 440
401, 401, 402, 442, 441
402, 402, 403, 443, 442
403, 403, 404, 444, 443
404, 404, 405, 445, 444
405, 405, 406, 446, 445
406, 406, 407, 447, 446
407, 407, 408, 448, 447
408, 408, 409, 449, 448
409, 409, 410, 450, 449
410, 410, 411, 451, 450
411, 411, 412, 452, 451
412, 412, 413, 453, 452
413, 413, 414, 454, 453
414, 414, 415, 455, 454
415, 415, 416, 456, 455
416, 416, 417, 457, 456
417, 417, 418, 458, 457
418, 418, 419, 459, 458
419, 419, 420, 460, 459
420, 420, 421, 461, 460
421, 421, 422, 462, 461
422, 422, 423, 463, 462
423, 423, 424, 464, 463
424, 424, 425, 465, 464
425, 425, 426, 466, 465
426, 426, 427, 467, 466
427, 427, 428, 468, 467
428, 428, 429, 469, 468
429, 429, 430, 470, 469
430, 430, 431, 471, 470
431, 431, 432, 472, 471
432, 432, 433, 473, 472
433, 433, 434, 474, 473
434, 434, 435, 475, 474
435, 435, 436, 476, 475
436, 436, 437, 477, 476
437, 437, 438, 478, 477
438, 438, 439, 479, 478
439, 439, 440, 480, 479
440, 440, 401, 441, 480
441, 441, 442, 482, 481
442, 442, 443, 483, 482
443, 443, 444, 484, 483
444, 444, 445, 485, 484
445, 445, 446, 486, 485
446, 446, 447, 487, 486
447, 447, 448, 488, 487
448, 448, 449, 489, 488
449, 449, 450, 490, 489
450, 450, 451, 491, 490
451, 451, 452, 492, 491
452, 452, 453, 493, 492
453, 453, 454, 494, 493
454, 454, 455, 495, 494
455, 455, 456, 496, 495
456, 456, 457, 497, 496
457, 457, 458, 498, 497
458, 458, 459, 499, 498
459, 459, 460, 500, 499
460, 460, 461, 501, 500
461, 461, 462, 502, 501
462, 462, 463, 503, 502
463, 463, 464, 504, 503
464, 464, 465, 505, 504
465, 465, 466, 506, 505
466, 466, 467, 507, 506
467, 467, 468, 508, 507
468, 468, 469, 509, 508
469, 469, 470, 510, 509
470, 470, 471, 511, 510
471, 471, 472, 512, 511
472, 472, 473, 513, 512
473, 473, 474, 514, 513
474, 474, 475, 515, 514
475, 475, 476, 516, 515
476, 476, 477, 517, 516
477, 477, 478, 518, 517
478, 478, 479, 519, 518
479, 479, 480, 520, 519
480, 480, 441, 481, 520
481, 481, 482, 522, 521
482, 482, 483, 523, 522
483, 483, 484, 524, 523
484, 484, 485, 525, 524
485, 485, 486, 526, 525
486, 486, 487, 527, 526
487, 487, 488, 528, 527
488, 488, 489, 529, 528
489, 489, 490, 530, 529
490, 490, 491, 531, 530
491, 491, 492, 532, 531
492, 492, 493, 533, 532
493, 493, 494, 534, 533
494, 494, 495, 535, 534
495, 495, 496, 536, 535
496, 496, 497, 537, 536
497, 497, 498, 538, 537
498, 498, 499, 539, 538
499, 499, 500, 540, 539
500, 500, 501, 541, 540
501, 501, 502, 542, 541
502, 502, 503, 543, 542
503, 503, 504, 544, 543
504, 504, 505, 545, 544
505, 505, 506, 546, 545
506, 506, 507, 547, 546
507, 507, 508, 548, 547
508, 508, 509, 549, 548
509, 509, 510, 550, 549
510, 510, 511, 551, 550
511, 511, 512, 552, 551
512, 512, 513, 553, 552
513, 513, 514, 554, 553
514, 514, 515, 555, 554
515, 515, 516, 556, 555
516, 516, 517, 557, 556
517, 517, 518, 558, 557
518, 518, 519, 559, 558
519, 519, 520, 560, 559
520, 520, 481, 521, 560
521, 521, 522, 562, 561
522, 522, 523, 563, 562
523, 523, 524, 564, 563
524, 524, 525, 565, 564
525, 525, 526, 566, 565
526, 526, 527, 567, 566
527, 527, 528, 568, 567
528, 528, 529, 569, 568
529, 529, 530, 570, 569
530, 530, 531, 571, 570
531, 531, 532, 572, 571
532, 532, 533, 573, 572
533, 533, 534, 574, 573
534, 534, 535, 575, 574
535, 535, 536, 576, 575
536, 536, 537, 577, 576
537, 537, 538, 578, 577
538, 538, 539, 579, 578
539, 539, 540, 580, 579
540, 540, 541, 581, 580
541, 541, 542, 582, 581
542, 542, 543, 583, 582
543, 543, 544, 584, 583
544, 544, 545, 585, 584
545, 545, 546, 586, 585
546, 546, 547, 587, 586
547, 547, 548, 588, 587
548, 548, 549, 589, 588
549, 549, 550, 590, 589
550, 550, 551, 591, 590
551, 551, 552, 592, 591
552, 552, 553, 593, 592
553, 553, 554, 594, 593
554, 554, 555, 595, 594
555, 555, 556, 596, 595
556, 556, 557, 597, 596
557, 557, 558, 598, 597
558, 558, 559, 599, 598
559, 559, 560, 600, 599
560, 560, 521, 561, 600
561, 561, 562, 602, 601
562, 562, 563, 603, 602
563, 563, 564, 604, 603
564, 564, 565, 605, 604
565, 565, 566, 606, 605
566, 566, 567, 607, 606
567, 567, 568, 608, 607
568, 568, 569, 609, 608
569, 569, 570, 610, 609
570, 570, 571, 611, 610
571, 571, 572, 612, 611
572, 572, 573, 613, 612
573, 573, 574, 614, 613
574, 574, 575, 615, 614
575, 575, 576, 616, 615
576, 576, 577, 617, 616
577, 577, 578, 618, 617
578, 578, 579, 619, 618
579, 579, 580, 620, 619
580, 580, 581, 621, 620
581, 581, 582, 622, 621
582, 582, 583, 623, 622
583, 583, 584, 624, 623
584, 584, 585, 625, 624
585, 585, 586, 626, 625
586, 586, 587, 627, 626
587, 587, 588, 628, 627
588, 588, 589, 629, 628
589, 589, 590, 630, 629
590, 590, 591, 631, 630
591, 591, 592, 632, 631
592, 592, 593, 633, 632
593, 593, 594, 634, 633
594, 594, 595, 635, 634
595, 595, 596, 636, 635
596, 596, 597, 637, 636
597, 597, 598, 638, 637
598, 598, 599, 639, 638
599, 599, 600, 640, 639
600, 600, 561, 601, 640
601, 601, 602, 642, 641
602, 602, 603, 643, 642
603, 603, 604, 644, 643
604, 604, 605, 645, 644
605, 605, 606, 646, 645
606, 606, 607, 647, 646
607, 607, 608, 648, 647
608, 608, 609, 649, 648
609, 609, 610, 650, 649
610, 610, 611, 651, 650
611, 611, 612, 652, 651
612, 612, 613, 653, 652
613, 613, 614, 654, 653
614, 614, 615, 655, 654
615, 615, 616, 656, 655
616, 616, 617, 657, 656
617, 617, 618, 658, 657
618, 618, 619, 659, 658
619, 619, 620, 660, 659
620, 620, 621, 661, 660
621, 621, 622, 662, 661
622, 622, 623, 663, 662
623, 623, 624, 664, 663
624, 624, 625, 665, 664
625, 625, 626, 666, 665
626, 626, 627, 667, 666
627, 627, 628, 668, 667
628, 628, 629, 669, 668
629, 629, 630, 670, 669
630, 630, 631, 671, 670
631, 631, 632, 672, 671
632, 632, 633, 673, 672
633, 633, 634, 674, 673
634, 634, 635, 675, 674
635, 635, 636, 676, 675
636, 636, 637, 677, 676
637, 637, 638, 678, 677
638, 638, 639, 679, 678
639, 639, 640, 680, 679
640, 640, 601, 641, 680
641, 641, 642, 682, 681
642, 642, 643, 683, 682
643, 643, 644, 684, 683
644, 644, 645, 685, 684
645, 645, 646, 686, 685
646, 646, 647, 687, 686
647, 647, 648, 688, 687
648, 648, 649, 689, 688
649, 649, 650, 690, 689
650, 650, 651, 691, 690
651, 651, 652, 692, 691
652, 652, 653, 693, 692
653, 653, 654, 694, 693
654, 654, 655, 695, 694
655, 655, 656, 696, 695
656, 656, 657, 697, 696
657, 657, 658, 698, 697
658, 658, 659, 699, 698
659, 659, 660, 700, 699
660, 660, 661, 701, 700
661, 661, 662, 702, 701
662, 662, 663, 703, 702
663, 663, 664, 704, 703
664, 664, 665, 705, 704
665, 665, 666, 706, 705
666, 666, 667, 707, 706
667, 667, 668, 708, 707
668, 668, 669, 709, 708
669, 669, 670, 710, 709
670, 670, 671, 711, 710
671, 671, 672, 712, 711
672, 672, 673, 713, 712
673, 673, 674, 714, 713
674, 674, 675, 715, 714
675, 675, 676, 716, 715
676, 676, 677, 717, 716
677, 677, 678, 718, 717
678, 678, 679, 719, 718
679, 679, 680, 720, 719
680, 680, 641, 681, 720
681, 681, 682, 722, 721
682, 682, 683, 723, 722
683, 683, 684, 724, 723
684, 684, 685, 725, 724
685, 685, 686, 726, 725
686, 686, 687, 727, 726
687, 687, 688, 728, 727
688, 688, 689, 729, 728
689, 689, 690, 730, 729
690, 690, 691, 731, 730
691, 691, 692, 732, 731
692, 692, 693, 733, 732
693, 693, 694, 734, 733
694, 694, 695, 735, 734
695, 695, 696, 736, 735
696, 696, 697, 737, 736
697, 697, 698, 738, 737
698, 698, 699, 739, 738
699, 699, 700, 740, 739
700, 700, 701, 741, 740
701, 701, 702, 742, 741
702, 702, 703, 743, 742
703, 703, 704, 744, 743
704, 704, 705, 745, 744
705, 705, 706, 746, 745
706, 706, 707, 747, 746
707, 707, 708, 748, 747
708, 708, 709, 749, 748
709, 709, 710, 750, 749
710, 710, 711, 751, 750
711, 711, 712, 752, 751
712, 712, 713, 753, 752
713, 713, 714, 754, 753
714, 714, 715, 755, 754
715, 715, 716, 756, 755
716, 716, 717, 757, 756
717, 717, 718, 758, 757
718, 718, 719, 759, 758
719, 719, 720, 760, 759
720, 720, 681, 721, 760
721, 721, 722, 762, 761
722, 722, 723, 763, 762
723, 723, 724, 764, 763
724, 724, 725, 765, 764
725, 725, 726, 766, 765
726, 726, 727, 767, 766
727, 727, 728, 768, 767
728, 728, 729, 769, 768
729, 729, 730, 770, 769
730, 730, 731, 771, 770
731, 731, 732, 772, 771
732, 732, 733, 773, 772
733, 733, 734, 774, 773
734, 734, 735, 775, 774
735, 735, 736, 776, 775
736, 736, 737, 777, 776
737, 737, 738, 778, 777
738, 738, 739, 779, 778
739, 739, 740, 780, 779
740, 740, 741, 781, 780
741, 741, 742, 782, 781
742, 742, 743, 783, 782
743, 743, 744, 784, 783
744, 744, 745, 785, 784
745, 745, 746, 786, 785
746, 746, 747, 787, 786
747, 747, 748, 788, 787
748, 748, 749, 789, 788
749, 749, 750, 790, 789
750, 750, 751, 791, 790
751, 751, 752, 792, 791
752, 752, 753, 793, 792
753, 753, 754, 794, 793
754, 754, 755, 795, 794
755, 755, 756, 796, 795
756, 756, 757, 797, 796
757, 757, 758, 798, 797
758, 758, 759, 799, 798
759, 759, 760, 800, 799
760, 760, 721, 761, 800
761, 761, 762, 802, 801
762, 762, 763, 803, 802
763, 763, 764, 804, 803
764, 764, 765, 805, 804
765, 765, 766, 806, 805
766, 766, 767, 807, 806
767, 767, 768, 808, 807
768, 768, 769, 809, 808
769, 769, 770, 810, 809
770, 770, 771, 811, 810
771, 771, 772, 812, 811
772, 772, 773, 813, 812
773, 773, 774, 814, 813
774, 774, 775, 815, 814
775, 775, 776, 816, 815
776, 776, 777, 817, 816
777, 777, 778, 818, 817
778, 778, 779, 819, 818
779, 779, 780, 820, 819
780, 780, 781, 821, 820
781, 781, 782, 822, 821
782, 782, 783, 823, 822
783, 783, 784, 824, 823
784, 784, 785, 825, 824
785, 785, 786, 826, 825
786, 786, 787, 827, 826
787, 787, 788, 828, 827
788, 788, 789, 829, 828
789, 789, 790, 830, 829
790, 790, 791, 831, 830
791, 791, 792, 832, 831
792, 792, 793, 833, 832
793, 793, 794, 834, 833
794, 794, 795, 835, 834
795, 795, 796, 836, 835
796, 796, 797, 837, 836
797, 797, 798, 838, 837
798, 798, 799, 839, 838
799, 799, 800, 840, 839
800, 800, 761, 801, 840
*NSET, NSET=NALL
1, 2, 3, 4, 5, 6, 7, 8, 9, 10, 11, 12, 13, 14, 15, 16
17, 18, 19, 20, 21, 22, 23, 24, 25, 26, 27, 28, 29, 30, 31, 32
33, 34, 35, 36, 37, 38, 39, 40, 41, 42, 43, 44, 45, 46, 47, 48
49, 50, 51, 52, 53, 54, 55, 56, 57, 58, 59, 60, 61, 62, 63, 64
65, 66, 67, 68, 69, 70, 71, 72, 73, 74, 75, 76, 77, 78, 79, 80
81, 82, 83, 84, 85, 86, 87, 88, 89, 90, 91, 92, 93, 94, 95, 96
97, 98, 99, 100, 101, 102, 103, 104, 105, 106, 107, 108, 109, 110, 111, 112
113, 114, 115, 116, 117, 118, 119, 120, 121, 122, 123, 124, 125, 126, 127, 128
129, 130, 131, 132, 133, 134, 135, 136, 137, 138, 139, 140, 141, 142, 143, 144
145, 146, 147, 148, 149, 150, 151, 152, 153, 154, 155, 156, 157, 158, 159, 160
161, 162, 163, 164, 165, 166, 167, 168, 169, 170, 171, 172, 173, 174, 175, 176
177, 178, 179, 180, 181, 182, 183, 184, 185, 186, 187, 188, 189, 190, 191, 192
193, 194, 195, 196, 197, 198, 199, 200, 201, 202, 203, 204, 205, 206, 207, 208
209, 210, 211, 212, 213, 214, 215, 216, 217, 218, 219, 220, 221, 222, 223, 224
225, 226, 227, 228, 229, 230, 231, 232, 233, 234, 235, 236, 237, 238, 239, 240
241, 242, 243, 244, 245, 246, 247, 248, 249, 250, 251, 252, 253, 254, 255, 256
257, 258, 259, 260, 261, 262, 263, 264, 265, 266, 267, 268, 269, 270, 271, 272
273, 274, 275, 276, 277, 278, 279, 280, 281, 282, 283, 284, 285, 286, 287, 288
289, 290, 291, 292, 293, 294, 295, 296, 297, 298, 299, 300, 301, 302, 303, 304
305, 306, 307, 308, 309, 310, 311, 312, 313, 314, 315, 316, 317, 318, 319, 320
321, 322, 323, 324, 325, 326, 327, 328, 329, 330, 331, 332, 333, 334, 335, 336
337, 338, 339, 340, 341, 342, 343, 344, 345, 346, 347, 348, 349, 350, 351, 352
353, 354, 355, 356, 357, 358, 359, 360, 361, 362, 363, 364, 365, 366, 367, 368
369, 370, 371, 372, 373, 374, 375, 376, 377, 378, 379, 380, 381, 382, 383, 384
385, 386, 387, 388, 389, 390, 391, 392, 393, 394, 395, 396, 397, 398, 399, 400
401, 402, 403, 404, 405, 406, 407, 408, 409, 410, 411, 412, 413, 414, 415, 416
417, 418, 419, 420, 421, 422, 423, 424, 425, 426, 427, 428, 429, 430, 431, 432
433, 434, 435, 436, 437, 438, 439, 440, 441, 442, 443, 444, 445, 446, 447, 448
449, 450, 451, 452, 453, 454, 455, 456, 457, 458, 459, 460, 461, 462, 463, 464
465, 466, 467, 468, 469, 470, 471, 472, 473, 474, 475, 476, 477, 478, 479, 480
481, 482, 483, 484, 485, 486, 487, 488, 489, 490, 491, 492, 493, 494, 495, 496
497, 498, 499, 500, 501, 502, 503, 504, 505, 506, 507, 508, 509, 510, 511, 512
513, 514, 515, 516, 517, 518, 519, 520, 521, 522, 523, 524, 525, 526, 527, 528
529, 530, 531, 532, 533, 534, 535, 536, 537, 538, 539, 540, 541, 542, 543, 544
545, 546, 547, 548, 549, 550, 551, 552, 553, 554, 555, 556, 557, 558, 559, 560
561, 562, 563, 564, 565, 566, 567, 568, 569, 570, 571, 572, 573, 574, 575, 576
577, 578, 579, 580, 581, 582, 583, 584, 585, 586, 587, 588, 589, 590, 591, 592
593, 594, 595, 596, 597, 598, 599, 600, 601, 602, 603, 604, 605, 606, 607, 608
609, 610, 611, 612, 613, 614, 615, 616, 617, 618, 619, 620, 621, 622, 623, 624
625, 626, 627, 628, 629, 630, 631, 632, 633, 634, 635, 636, 637, 638, 639, 640
641, 642, 643, 644, 645, 646, 647, 648, 649, 650, 651, 652, 653, 654, 655, 656
657, 658, 659, 660, 661, 662, 663, 664, 665, 666, 667, 668, 669, 670, 671, 672
673, 674, 675, 676, 677, 678, 679, 680, 681, 682, 683, 684, 685, 686, 687, 688
689, 690, 691, 692, 693, 694, 695, 696, 697, 698, 699, 700, 701, 702, 703, 704
705, 706, 707, 708, 709, 710, 711, 712, 713, 714, 715, 716, 717, 718, 719, 720
721, 722, 723, 724, 725, 726, 727, 728, 729, 730, 731, 732, 733, 734, 735, 736
737, 738, 739, 740, 741, 742, 743, 744, 745, 746, 747, 748, 749, 750, 751, 752
753, 754, 755, 756, 757, 758, 759, 760, 761, 762, 763, 764, 765, 766, 767, 768
769, 770, 771, 772, 773, 774, 775, 776, 777, 778, 779, 780, 781, 782, 783, 784
785, 786, 787, 788, 789, 790, 791, 792, 793, 794, 795, 796, 797, 798, 799, 800
801, 802, 803, 804, 805, 806, 807, 808, 809, 810, 811, 812, 813, 814, 815, 816
817, 818, 819, 820, 821, 822, 823, 824, 825, 826, 827, 828, 829, 830, 831, 832
833, 834, 835, 836, 837, 838, 839, 840
*NSET, NSET=NBASE
1, 2, 3, 4, 5, 6, 7, 8, 9, 10, 11, 12, 13, 14, 15, 16
17, 18, 19, 20, 21, 22, 23, 24, 25, 26, 27, 28, 29, 30, 31, 32
33, 34, 35, 36, 37, 38, 39, 40
*NSET, NSET=NTOP
801, 802, 803, 804, 805, 806, 807, 808, 809, 810, 811, 812, 813, 814, 815, 816
817, 818, 819, 820, 821, 822, 823, 824, 825, 826, 827, 828, 829, 830, 831, 832
833, 834, 835, 836, 837, 838, 839, 840
*ELSET, ELSET=WIND_SEC_01
1, 41, 81, 121, 161, 201, 241, 281, 321, 361, 401, 441, 481, 521, 561, 601
641, 681, 721, 761
*ELSET, ELSET=WIND_SEC_02
2, 42, 82, 122, 162, 202, 242, 282, 322, 362, 402, 442, 482, 522, 562, 602
642, 682, 722, 762
*ELSET, ELSET=WIND_SEC_03
3, 43, 83, 123, 163, 203, 243, 283, 323, 363, 403, 443, 483, 523, 563, 603
643, 683, 723, 763
*ELSET, ELSET=WIND_SEC_04
4, 44, 84, 124, 164, 204, 244, 284, 324, 364, 404, 444, 484, 524, 564, 604
644, 684, 724, 764
*ELSET, ELSET=WIND_SEC_05
5, 45, 85, 125, 165, 205, 245, 285, 325, 365, 405, 445, 485, 525, 565, 605
645, 685, 725, 765
*ELSET, ELSET=WIND_SEC_06
6, 46, 86, 126, 166, 206, 246, 286, 326, 366, 406, 446, 486, 526, 566, 606
646, 686, 726, 766
*ELSET, ELSET=WIND_SEC_07
7, 47, 87, 127, 167, 207, 247, 287, 327, 367, 407, 447, 487, 527, 567, 607
647, 687, 727, 767
*ELSET, ELSET=WIND_SEC_08
8, 48, 88, 128, 168, 208, 248, 288, 328, 368, 408, 448, 488, 528, 568, 608
648, 688, 728, 768
*ELSET, ELSET=WIND_SEC_09
9, 49, 89, 129, 169, 209, 249, 289, 329, 369, 409, 449, 489, 529, 569, 609
649, 689, 729, 769
*ELSET, ELSET=WIND_SEC_10
10, 50, 90, 130, 170, 210, 250, 290, 330, 370, 410, 450, 490, 530, 570, 610
650, 690, 730, 770
*ELSET, ELSET=WIND_SEC_11
11, 51, 91, 131, 171, 211, 251, 291, 331, 371, 411, 451, 491, 531, 571, 611
651, 691, 731, 771
*ELSET, ELSET=WIND_SEC_12
12, 52, 92, 132, 172, 212, 252, 292, 332, 372, 412, 452, 492, 532, 572, 612
652, 692, 732, 772
*ELSET, ELSET=WIND_SEC_13
13, 53, 93, 133, 173, 213, 253, 293, 333, 373, 413, 453, 493, 533, 573, 613
653, 693, 733, 773
*ELSET, ELSET=WIND_SEC_14
14, 54, 94, 134, 174, 214, 254, 294, 334, 374, 414, 454, 494, 534, 574, 614
654, 694, 734, 774
*ELSET, ELSET=WIND_SEC_15
15, 55, 95, 135, 175, 215, 255, 295, 335, 375, 415, 455, 495, 535, 575, 615
655, 695, 735, 775
*ELSET, ELSET=WIND_SEC_16
16, 56, 96, 136, 176, 216, 256, 296, 336, 376, 416, 456, 496, 536, 576, 616
656, 696, 736, 776
*ELSET, ELSET=WIND_SEC_17
17, 57, 97, 137, 177, 217, 257, 297, 337, 377, 417, 457, 497, 537, 577, 617
657, 697, 737, 777
*ELSET, ELSET=WIND_SEC_18
18, 58, 98, 138, 178, 218, 258, 298, 338, 378, 418, 458, 498, 538, 578, 618
658, 698, 738, 778
*ELSET, ELSET=WIND_SEC_19
19, 59, 99, 139, 179, 219, 259, 299, 339, 379, 419, 459, 499, 539, 579, 619
659, 699, 739, 779
*ELSET, ELSET=WIND_SEC_20
20, 60, 100, 140, 180, 220, 260, 300, 340, 380, 420, 460, 500, 540, 580, 620
660, 700, 740, 780
*ELSET, ELSET=WIND_SEC_21
21, 61, 101, 141, 181, 221, 261, 301, 341, 381, 421, 461, 501, 541, 581, 621
661, 701, 741, 781
*ELSET, ELSET=WIND_SEC_22
22, 62, 102, 142, 182, 222, 262, 302, 342, 382, 422, 462, 502, 542, 582, 622
662, 702, 742, 782
*ELSET, ELSET=WIND_SEC_23
23, 63, 103, 143, 183, 223, 263, 303, 343, 383, 423, 463, 503, 543, 583, 623
663, 703, 743, 783
*ELSET, ELSET=WIND_SEC_24
24, 64, 104, 144, 184, 224, 264, 304, 344, 384, 424, 464, 504, 544, 584, 624
664, 704, 744, 784
*ELSET, ELSET=WIND_SEC_25
25, 65, 105, 145, 185, 225, 265, 305, 345, 385, 425, 465, 505, 545, 585, 625
665, 705, 745, 785
*ELSET, ELSET=WIND_SEC_26
26, 66, 106, 146, 186, 226, 266, 306, 346, 386, 426, 466, 506, 546, 586, 626
666, 706, 746, 786
*ELSET, ELSET=WIND_SEC_27
27, 67, 107, 147, 187, 227, 267, 307, 347, 387, 427, 467, 507, 547, 587, 627
667, 707, 747, 787
*ELSET, ELSET=WIND_SEC_28
28, 68, 108, 148, 188, 228, 268, 308, 348, 388, 428, 468, 508, 548, 588, 628
668, 708, 748, 788
*ELSET, ELSET=WIND_SEC_29
29, 69, 109, 149, 189, 229, 269, 309, 349, 389, 429, 469, 509, 549, 589, 629
669, 709, 749, 789
*ELSET, ELSET=WIND_SEC_30
30, 70, 110, 150, 190, 230, 270, 310, 350, 390, 430, 470, 510, 550, 590, 630
670, 710, 750, 790
*ELSET, ELSET=WIND_SEC_31
31, 71, 111, 151, 191, 231, 271, 311, 351, 391, 431, 471, 511, 551, 591, 631
671, 711, 751, 791
*ELSET, ELSET=WIND_SEC_32
32, 72, 112, 152, 192, 232, 272, 312, 352, 392, 432, 472, 512, 552, 592, 632
672, 712, 752, 792
*ELSET, ELSET=WIND_SEC_33
33, 73, 113, 153, 193, 233, 273, 313, 353, 393, 433, 473, 513, 553, 593, 633
673, 713, 753, 793
*ELSET, ELSET=WIND_SEC_34
34, 74, 114, 154, 194, 234, 274, 314, 354, 394, 434, 474, 514, 554, 594, 634
674, 714, 754, 794
*ELSET, ELSET=WIND_SEC_35
35, 75, 115, 155, 195, 235, 275, 315, 355, 395, 435, 475, 515, 555, 595, 635
675, 715, 755, 795
*ELSET, ELSET=WIND_SEC_36
36, 76, 116, 156, 196, 236, 276, 316, 356, 396, 436, 476, 516, 556, 596, 636
676, 716, 756, 796
*ELSET, ELSET=WIND_SEC_37
37, 77, 117, 157, 197, 237, 277, 317, 357, 397, 437, 477, 517, 557, 597, 637
677, 717, 757, 797
*ELSET, ELSET=WIND_SEC_38
38, 78, 118, 158, 198, 238, 278, 318, 358, 398, 438, 478, 518, 558, 598, 638
678, 718, 758, 798
*ELSET, ELSET=WIND_SEC_39
39, 79, 119, 159, 199, 239, 279, 319, 359, 399, 439, 479, 519, 559, 599, 639
679, 719, 759, 799
*ELSET, ELSET=WIND_SEC_40
40, 80, 120, 160, 200, 240, 280, 320, 360, 400, 440, 480, 520, 560, 600, 640
680, 720, 760, 800
*MATERIAL, NAME=EquivalentReinforcedConcrete_C30_37
*ELASTIC
33000000000.000000, 0.200000
*DENSITY
2500.000000
*SHELL SECTION, ELSET=EALL, MATERIAL=EquivalentReinforcedConcrete_C30_37
0.200000
*BOUNDARY
NBASE, 1, 6
*STEP, NAME=STATIC_WIND, NLGEOM=NO
*STATIC
0.1, 1.0, 1e-05, 1.0
*DLOAD
EALL, GRAV, 9.810000, 0.000000, -1.000000, 0.000000
*OUTPUT, FIELD, FREQUENCY=1
*NODE OUTPUT, NSET=NALL
U
*NODE OUTPUT, NSET=NBASE
RF
*ELEMENT OUTPUT, ELSET=EALL
S, E
*END STEP
