*HEADING
** Task 7 generated input for S4 / SA (engineering_feasible)
*PREPRINT, ECHO=NO, MODEL=NO, HISTORY=NO, CONTACT=NO
*NODE
1, 39.300000, 0.000000, 0.000000
2, 36.308466, 0.000000, 15.039459
3, 27.789297, 0.000000, 27.789297
4, 15.039459, 0.000000, 36.308466
5, 0.000000, 0.000000, 39.300000
6, -15.039459, 0.000000, 36.308466
7, -27.789297, 0.000000, 27.789297
8, -36.308466, 0.000000, 15.039459
9, -39.300000, 0.000000, 0.000000
10, -36.308466, 0.000000, -15.039459
11, -27.789297, 0.000000, -27.789297
12, -15.039459, 0.000000, -36.308466
13, -0.000000, 0.000000, -39.300000
14, 15.039459, 0.000000, -36.308466
15, 27.789297, 0.000000, -27.789297
16, 36.308466, 0.000000, -15.039459
17, 34.187145, 3.041667, 0.000000
18, 31.584803, 3.041667, 13.082854
19, 24.173962, 3.041667, 24.173962
20, 13.082854, 3.041667, 31.584803
21, 0.000000, 3.041667, 34.187145
22, -13.082854, 3.041667, 31.584803
23, -24.173962, 3.041667, 24.173962
24, -31.584803, 3.041667, 13.082854
25, -34.187145, 3.041667, 0.000000
26, -31.584803, 3.041667, -13.082854
27, -24.173962, 3.041667, -24.173962
28, -13.082854, 3.041667, -31.584803
29, -0.000000, 3.041667, -34.187145
30, 13.082854, 3.041667, -31.584803
31, 24.173962, 3.041667, -24.173962
32, 31.584803, 3.041667, -13.082854
33, 29.394637, 6.083333, 0.000000
34, 27.157104, 6.083333, 11.248841
35, 20.785147, 6.083333, 20.785147
36, 11.248841, 6.083333, 27.157104
37, 0.000000, 6.083333, 29.394637
38, -11.248841, 6.083333, 27.157104
39, -20.785147, 6.083333, 20.785147
40, -27.157104, 6.083333, 11.248841
41, -29.394637, 6.083333, 0.000000
42, -27.157104, 6.083333, -11.248841
43, -20.785147, 6.083333, -20.785147
44, -11.248841, 6.083333, -27.157104
45, -0.000000, 6.083333, -29.394637
46, 11.248841, 6.083333, -27.157104
47, 20.785147, 6.083333, -20.785147
48, 27.157104, 6.083333, -11.248841
49, 25.444981, 9.125000, 0.000000
50, 23.508097, 9.125000, 9.737373
51, 17.992318, 9.125000, 17.992318
52, 9.737373, 9.125000, 23.508097
53, 0.000000, 9.125000, 25.444981
54, -9.737373, 9.125000, 23.508097
55, -17.992318, 9.125000, 17.992318
56, -23.508097, 9.125000, 9.737373
57, -25.444981, 9.125000, 0.000000
58, -23.508097, 9.125000, -9.737373
59, -17.992318, 9.125000, -17.992318
60, -9.737373, 9.125000, -23.508097
61, -0.000000, 9.125000, -25.444981
62, 9.737373, 9.125000, -23.508097
63, 17.992318, 9.125000, -17.992318
64, 23.508097, 9.125000, -9.737373
65, 22.333441, 12.166667, 0.000000
66, 20.633409, 12.166667, 8.546638
67, 15.792127, 12.166667, 15.792127
68, 8.546638, 12.166667, 20.633409
69, 0.000000, 12.166667, 22.333441
70, -8.546638, 12.166667, 20.633409
71, -15.792127, 12.166667, 15.792127
72, -20.633409, 12.166667, 8.546638
73, -22.333441, 12.166667, 0.000000
74, -20.633409, 12.166667, -8.546638
75, -15.792127, 12.166667, -15.792127
76, -8.546638, 12.166667, -20.633409
77, -0.000000, 12.166667, -22.333441
78, 8.546638, 12.166667, -20.633409
79, 15.792127, 12.166667, -15.792127
80, 20.633409, 12.166667, -8.546638
81, 20.241333, 15.208333, 0.000000
82, 18.700553, 15.208333, 7.746023
83, 14.312784, 15.208333, 14.312784
84, 7.746023, 15.208333, 18.700553
85, 0.000000, 15.208333, 20.241333
86, -7.746023, 15.208333, 18.700553
87, -14.312784, 15.208333, 14.312784
88, -18.700553, 15.208333, 7.746023
89, -20.241333, 15.208333, 0.000000
90, -18.700553, 15.208333, -7.746023
91, -14.312784, 15.208333, -14.312784
92, -7.746023, 15.208333, -18.700553
93, -0.000000, 15.208333, -20.241333
94, 7.746023, 15.208333, -18.700553
95, 14.312784, 15.208333, -14.312784
96, 18.700553, 15.208333, -7.746023
97, 19.091449, 18.250000, 0.000000
98, 17.638199, 18.250000, 7.305981
99, 13.499693, 18.250000, 13.499693
100, 7.305981, 18.250000, 17.638199
101, 0.000000, 18.250000, 19.091449
102, -7.305981, 18.250000, 17.638199
103, -13.499693, 18.250000, 13.499693
104, -17.638199, 18.250000, 7.305981
105, -19.091449, 18.250000, 0.000000
106, -17.638199, 18.250000, -7.305981
107, -13.499693, 18.250000, -13.499693
108, -7.305981, 18.250000, -17.638199
109, -0.000000, 18.250000, -19.091449
110, 7.305981, 18.250000, -17.638199
111, 13.499693, 18.250000, -13.499693
112, 17.638199, 18.250000, -7.305981
113, 18.867332, 21.291667, 0.000000
114, 17.431142, 21.291667, 7.220215
115, 13.341219, 21.291667, 13.341219
116, 7.220215, 21.291667, 17.431142
117, 0.000000, 21.291667, 18.867332
118, -7.220215, 21.291667, 17.431142
119, -13.341219, 21.291667, 13.341219
120, -17.431142, 21.291667, 7.220215
121, -18.867332, 21.291667, 0.000000
122, -17.431142, 21.291667, -7.220215
123, -13.341219, 21.291667, -13.341219
124, -7.220215, 21.291667, -17.431142
125, -0.000000, 21.291667, -18.867332
126, 7.220215, 21.291667, -17.431142
127, 13.341219, 21.291667, -13.341219
128, 17.431142, 21.291667, -7.220215
129, 19.337426, 24.333333, 0.000000
130, 17.865452, 24.333333, 7.400112
131, 13.673625, 24.333333, 13.673625
132, 7.400112, 24.333333, 17.865452
133, 0.000000, 24.333333, 19.337426
134, -7.400112, 24.333333, 17.865452
135, -13.673625, 24.333333, 13.673625
136, -17.865452, 24.333333, 7.400112
137, -19.337426, 24.333333, 0.000000
138, -17.865452, 24.333333, -7.400112
139, -13.673625, 24.333333, -13.673625
140, -7.400112, 24.333333, -17.865452
141, -0.000000, 24.333333, -19.337426
142, 7.400112, 24.333333, -17.865452
143, 13.673625, 24.333333, -13.673625
144, 17.865452, 24.333333, -7.400112
145, 20.571737, 27.375000, 0.000000
146, 19.005807, 27.375000, 7.872463
147, 14.546415, 27.375000, 14.546415
148, 7.872463, 27.375000, 19.005807
149, 0.000000, 27.375000, 20.571737
150, -7.872463, 27.375000, 19.005807
151, -14.546415, 27.375000, 14.546415
152, -19.005807, 27.375000, 7.872463
153, -20.571737, 27.375000, 0.000000
154, -19.005807, 27.375000, -7.872463
155, -14.546415, 27.375000, -14.546415
156, -7.872463, 27.375000, -19.005807
157, -0.000000, 27.375000, -20.571737
158, 7.872463, 27.375000, -19.005807
159, 14.546415, 27.375000, -14.546415
160, 19.005807, 27.375000, -7.872463
161, 22.446393, 30.416667, 0.000000
162, 20.737763, 30.416667, 8.589863
163, 15.871997, 30.416667, 15.871997
164, 8.589863, 30.416667, 20.737763
165, 0.000000, 30.416667, 22.446393
166, -8.589863, 30.416667, 20.737763
167, -15.871997, 30.416667, 15.871997
168, -20.737763, 30.416667, 8.589863
169, -22.446393, 30.416667, 0.000000
170, -20.737763, 30.416667, -8.589863
171, -15.871997, 30.416667, -15.871997
172, -8.589863, 30.416667, -20.737763
173, -0.000000, 30.416667, -22.446393
174, 8.589863, 30.416667, -20.737763
175, 15.871997, 30.416667, -15.871997
176, 20.737763, 30.416667, -8.589863
177, 24.842670, 33.458333, 0.000000
178, 22.951634, 33.458333, 9.506878
179, 17.566421, 33.458333, 17.566421
180, 9.506878, 33.458333, 22.951634
181, 0.000000, 33.458333, 24.842670
182, -9.506878, 33.458333, 22.951634
183, -17.566421, 33.458333, 17.566421
184, -22.951634, 33.458333, 9.506878
185, -24.842670, 33.458333, 0.000000
186, -22.951634, 33.458333, -9.506878
187, -17.566421, 33.458333, -17.566421
188, -9.506878, 33.458333, -22.951634
189, -0.000000, 33.458333, -24.842670
190, 9.506878, 33.458333, -22.951634
191, 17.566421, 33.458333, -17.566421
192, 22.951634, 33.458333, -9.506878
193, 27.400000, 36.500000, 0.000000
194, 25.314299, 36.500000, 10.485526
195, 19.374726, 36.500000, 19.374726
196, 10.485526, 36.500000, 25.314299
197, 0.000000, 36.500000, 27.400000
198, -10.485526, 36.500000, 25.314299
199, -19.374726, 36.500000, 19.374726
200, -25.314299, 36.500000, 10.485526
201, -27.400000, 36.500000, 0.000000
202, -25.314299, 36.500000, -10.485526
203, -19.374726, 36.500000, -19.374726
204, -10.485526, 36.500000, -25.314299
205, -0.000000, 36.500000, -27.400000
206, 10.485526, 36.500000, -25.314299
207, 19.374726, 36.500000, -19.374726
208, 25.314299, 36.500000, -10.485526
*ELEMENT, TYPE=S4R, ELSET=EALL
1, 1, 2, 18, 17
2, 2, 3, 19, 18
3, 3, 4, 20, 19
4, 4, 5, 21, 20
5, 5, 6, 22, 21
6, 6, 7, 23, 22
7, 7, 8, 24, 23
8, 8, 9, 25, 24
9, 9, 10, 26, 25
10, 10, 11, 27, 26
11, 11, 12, 28, 27
12, 12, 13, 29, 28
13, 13, 14, 30, 29
14, 14, 15, 31, 30
15, 15, 16, 32, 31
16, 16, 1, 17, 32
17, 17, 18, 34, 33
18, 18, 19, 35, 34
19, 19, 20, 36, 35
20, 20, 21, 37, 36
21, 21, 22, 38, 37
22, 22, 23, 39, 38
23, 23, 24, 40, 39
24, 24, 25, 41, 40
25, 25, 26, 42, 41
26, 26, 27, 43, 42
27, 27, 28, 44, 43
28, 28, 29, 45, 44
29, 29, 30, 46, 45
30, 30, 31, 47, 46
31, 31, 32, 48, 47
32, 32, 17, 33, 48
33, 33, 34, 50, 49
34, 34, 35, 51, 50
35, 35, 36, 52, 51
36, 36, 37, 53, 52
37, 37, 38, 54, 53
38, 38, 39, 55, 54
39, 39, 40, 56, 55
40, 40, 41, 57, 56
41, 41, 42, 58, 57
42, 42, 43, 59, 58
43, 43, 44, 60, 59
44, 44, 45, 61, 60
45, 45, 46, 62, 61
46, 46, 47, 63, 62
47, 47, 48, 64, 63
48, 48, 33, 49, 64
49, 49, 50, 66, 65
50, 50, 51, 67, 66
51, 51, 52, 68, 67
52, 52, 53, 69, 68
53, 53, 54, 70, 69
54, 54, 55, 71, 70
55, 55, 56, 72, 71
56, 56, 57, 73, 72
57, 57, 58, 74, 73
58, 58, 59, 75, 74
59, 59, 60, 76, 75
60, 60, 61, 77, 76
61, 61, 62, 78, 77
62, 62, 63, 79, 78
63, 63, 64, 80, 79
64, 64, 49, 65, 80
65, 65, 66, 82, 81
66, 66, 67, 83, 82
67, 67, 68, 84, 83
68, 68, 69, 85, 84
69, 69, 70, 86, 85
70, 70, 71, 87, 86
71, 71, 72, 88, 87
72, 72, 73, 89, 88
73, 73, 74, 90, 89
74, 74, 75, 91, 90
75, 75, 76, 92, 91
76, 76, 77, 93, 92
77, 77, 78, 94, 93
78, 78, 79, 95, 94
79, 79, 80, 96, 95
80, 80, 65, 81, 96
81, 81, 82, 98, 97
82, 82, 83, 99, 98
83, 83, 84, 100, 99
84, 84, 85, 101, 100
85, 85, 86, 102, 101
86, 86, 87, 103, 102
87, 87, 88, 104, 103
88, 88, 89, 105, 104
89, 89, 90, 106, 105
90, 90, 91, 107, 106
91, 91, 92, 108, 107
92, 92, 93, 109, 108
93, 93, 94, 110, 109
94, 94, 95, 111, 110
95, 95, 96, 112, 111
96, 96, 81, 97, 112
97, 97, 98, 114, 113
98, 98, 99, 115, 114
99, 99, 100, 116, 115
100, 100, 101, 117, 116
101, 101, 102, 118, 117
102, 102, 103, 119, 118
103, 103, 104, 120, 119
104, 104, 105, 121, 120
105, 105, 106, 122, 121
106, 106, 107, 123, 122
107, 107, 108, 124, 123
108, 108, 109, 125, 124
109, 109, 110, 126, 125
110, 110, 111, 127, 126
111, 111, 112, 128, 127
112, 112, 97, 113, 128
113, 113, 114, 130, 129
114, 114, 115, 131, 130
115, 115, 116, 132, 131
116, 116, 117, 133, 132
117, 117, 118, 134, 133
118, 118, 119, 135, 134
119, 119, 120, 136, 135
120, 120, 121, 137, 136
121, 121, 122, 138, 137
122, 122, 123, 139, 138
123, 123, 124, 140, 139
124, 124, 125, 141, 140
125, 125, 126, 142, 141
126, 126, 127, 143, 142
127, 127, 128, 144, 143
128, 128, 113, 129, 144
129, 129, 130, 146, 145
130, 130, 131, 147, 146
131, 131, 132, 148, 147
132, 132, 133, 149, 148
133, 133, 134, 150, 149
134, 134, 135, 151, 150
135, 135, 136, 152, 151
136, 136, 137, 153, 152
137, 137, 138, 154, 153
138, 138, 139, 155, 154
139, 139, 140, 156, 155
140, 140, 141, 157, 156
141, 141, 142, 158, 157
142, 142, 143, 159, 158
143, 143, 144, 160, 159
144, 144, 129, 145, 160
145, 145, 146, 162, 161
146, 146, 147, 163, 162
147, 147, 148, 164, 163
148, 148, 149, 165, 164
149, 149, 150, 166, 165
150, 150, 151, 167, 166
151, 151, 152, 168, 167
152, 152, 153, 169, 168
153, 153, 154, 170, 169
154, 154, 155, 171, 170
155, 155, 156, 172, 171
156, 156, 157, 173, 172
157, 157, 158, 174, 173
158, 158, 159, 175, 174
159, 159, 160, 176, 175
160, 160, 145, 161, 176
161, 161, 162, 178, 177
162, 162, 163, 179, 178
163, 163, 164, 180, 179
164, 164, 165, 181, 180
165, 165, 166, 182, 181
166, 166, 167, 183, 182
167, 167, 168, 184, 183
168, 168, 169, 185, 184
169, 169, 170, 186, 185
170, 170, 171, 187, 186
171, 171, 172, 188, 187
172, 172, 173, 189, 188
173, 173, 174, 190, 189
174, 174, 175, 191, 190
175, 175, 176, 192, 191
176, 176, 161, 177, 192
177, 177, 178, 194, 193
178, 178, 179, 195, 194
179, 179, 180, 196, 195
180, 180, 181, 197, 196
181, 181, 182, 198, 197
182, 182, 183, 199, 198
183, 183, 184, 200, 199
184, 184, 185, 201, 200
185, 185, 186, 202, 201
186, 186, 187, 203, 202
187, 187, 188, 204, 203
188, 188, 189, 205, 204
189, 189, 190, 206, 205
190, 190, 191, 207, 206
191, 191, 192, 208, 207
192, 192, 177, 193, 208
*NSET, NSET=NALL
1, 2, 3, 4, 5, 6, 7, 8, 9, 10, 11, 12, 13, 14, 15, 16
17, 18, 19, 20, 21, 22, 23, 24, 25, 26, 27, 28, 29, 30, 31, 32
33, 34, 35, 36, 37, 38, 39, 40, 41, 42, 43, 44, 45, 46, 47, 48
49, 50, 51, 52, 53, 54, 55, 56, 57, 58, 59, 60, 61, 62, 63, 64
65, 66, 67, 68, 69, 70, 71, 72, 73, 74, 75, 76, 77, 78, 79, 80
81, 82, 83, 84, 85, 86, 87, 88, 89, 90, 91, 92, 93, 94, 95, 96
97, 98, 99, 100, 101, 102, 103, 104, 105, 106, 107, 108, 109, 110, 111, 112
113, 114, 115, 116, 117, 118, 119, 120, 121, 122, 123, 124, 125, 126, 127, 128
129, 130, 131, 132, 133, 134, 135, 136, 137, 138, 139, 140, 141, 142, 143, 144
145, 146, 147, 148, 149, 150, 151, 152, 153, 154, 155, 156, 157, 158, 159, 160
161, 162, 163, 164, 165, 166, 167, 168, 169, 170, 171, 172, 173, 174, 175, 176
177, 178, 179, 180, 181, 182, 183, 184, 185, 186, 187, 188, 189, 190, 191, 192
193, 194, 195, 196, 197, 198, 199, 200, 201, 202, 203, 204, 205, 206, 207, 208
*NSET, NSET=NBASE
1, 2, 3, 4, 5, 6, 7, 8, 9, 10, 11, 12, 13, 14, 15, 16
*NSET, NSET=NTOP
193, 194, 195, 196, 197, 198, 199, 200, 201, 202, 203, 204, 205, 206, 207, 208
*ELSET, ELSET=WIND_SEC_01
1, 17, 33, 49, 65, 81, 97, 113, 129, 145, 161, 177
*ELSET, ELSET=WIND_SEC_02
2, 18, 34, 50, 66, 82, 98, 114, 130, 146, 162, 178
*ELSET, ELSET=WIND_SEC_03
3, 19, 35, 51, 67, 83, 99, 115, 131, 147, 163, 179
*ELSET, ELSET=WIND_SEC_04
4, 20, 36, 52, 68, 84, 100, 116, 132, 148, 164, 180
*ELSET, ELSET=WIND_SEC_05
5, 21, 37, 53, 69, 85, 101, 117, 133, 149, 165, 181
*ELSET, ELSET=WIND_SEC_06
6, 22, 38, 54, 70, 86, 102, 118, 134, 150, 166, 182
*ELSET, ELSET=WIND_SEC_07
7, 23, 39, 55, 71, 87, 103, 119, 135, 151, 167, 183
*ELSET, ELSET=WIND_SEC_08
8, 24, 40, 56, 72, 88, 104, 120, 136, 152, 168, 184
*ELSET, ELSET=WIND_SEC_09
9, 25, 41, 57, 73, 89, 105, 121, 137, 153, 169, 185
*ELSET, ELSET=WIND_SEC_10
10, 26, 42, 58, 74, 90, 106, 122, 138, 154, 170, 186
*ELSET, ELSET=WIND_SEC_11
11, 27, 43, 59, 75, 91, 107, 123, 139, 155, 171, 187
*ELSET, ELSET=WIND_SEC_12
12, 28, 44, 60, 76, 92, 108, 124, 140, 156, 172, 188
*ELSET, ELSET=WIND_SEC_13
13, 29, 45, 61, 77, 93, 109, 125, 141, 157, 173, 189
*ELSET, ELSET=WIND_SEC_14
14, 30, 46, 62, 78, 94, 110, 126, 142, 158, 174, 190
*ELSET, ELSET=WIND_SEC_15
15, 31, 47, 63, 79, 95, 111, 127, 143, 159, 175, 191
*ELSET, ELSET=WIND_SEC_16
16, 32, 48, 64, 80, 96, 112, 128, 144, 160, 176, 192
*MATERIAL, NAME=EquivalentReinforcedConcrete_C30_37
*ELASTIC
33000000000.000000, 0.200000
*DENSITY
2500.000000
*SHELL SECTION, ELSET=EALL, MATERIAL=EquivalentReinforcedConcrete_C30_37
0.200000
*BOUNDARY
NBASE, 1, 6
*STEP, NAME=STATIC_WIND, NLGEOM=NO
*STATIC
0.1, 1.0, 1e-05, 1.0
*DLOAD
EALL, GRAV, 9.810000, 0.000000, -1.000000, 0.000000
WIND_SEC_01, P, -441.353376
WIND_SEC_02, P, -374.161326
WIND_SEC_03, P, -250.006605
WIND_SEC_04, P, -87.790645
WIND_SEC_05, P, 87.790645
WIND_SEC_06, P, 250.006605
WIND_SEC_07, P, 281.250000
WIND_SEC_08, P, 281.250000
WIND_SEC_09, P, 281.250000
WIND_SEC_10, P, 281.250000
WIND_SEC_11, P, 250.006605
WIND_SEC_12, P, 87.790645
WIND_SEC_13, P, -87.790645
WIND_SEC_14, P, -250.006605
WIND_SEC_15, P, -374.161326
WIND_SEC_16, P, -441.353376
*OUTPUT, FIELD, FREQUENCY=1
*NODE OUTPUT, NSET=NALL
U
*NODE OUTPUT, NSET=NBASE
RF
*ELEMENT OUTPUT, ELSET=EALL
S, E
*END STEP
*STEP, NAME=BUCKLING, PERTURBATION
*BUCKLE, EIGENSOLVER=LANCZOS
5,
*DLOAD
EALL, GRAV, 9.810000, 0.000000, -1.000000, 0.000000
WIND_SEC_01, P, -441.353376
WIND_SEC_02, P, -374.161326
WIND_SEC_03, P, -250.006605
WIND_SEC_04, P, -87.790645
WIND_SEC_05, P, 87.790645
WIND_SEC_06, P, 250.006605
WIND_SEC_07, P, 281.250000
WIND_SEC_08, P, 281.250000
WIND_SEC_09, P, 281.250000
WIND_SEC_10, P, 281.250000
WIND_SEC_11, P, 250.006605
WIND_SEC_12, P, 87.790645
WIND_SEC_13, P, -87.790645
WIND_SEC_14, P, -250.006605
WIND_SEC_15, P, -374.161326
WIND_SEC_16, P, -441.353376
*OUTPUT, FIELD, FREQUENCY=1
*NODE OUTPUT, NSET=NALL
U
*END STEP
